LAMMPS data file from NanoMD Designer

9410 atoms
2808 bonds
1404 angles

8 atom types
1 bond types
1 angle types

0 150.000000 xlo xhi
0 40.000000 ylo yhi
0 20.000000 zlo zhi

Masses

1 12.011
2 12.011
3 15.999
4 1.008
5 15.999
6 1.008
7 22.990
8 35.450

Atoms  # full

1 0 1 0.000000 0.000000 0.000000 5.000000
2 0 1 0.000000 1.229756 0.710000 5.000000
3 0 1 0.000000 1.229756 2.130000 5.000000
4 0 1 0.000000 2.459512 2.840000 5.000000
5 0 1 0.000000 2.459512 4.260000 5.000000
6 0 1 0.000000 3.689268 4.970000 5.000000
7 0 1 0.000000 3.689268 6.390000 5.000000
8 0 1 0.000000 4.919024 7.100000 5.000000
9 0 1 0.000000 4.919024 8.520000 5.000000
10 0 1 0.000000 6.148780 9.230000 5.000000
11 0 2 0.150000 6.148780 10.650000 5.000000
12 0 1 0.000000 7.378536 11.360000 5.000000
13 0 1 0.000000 7.378536 12.780000 5.000000
14 0 1 0.000000 8.608293 13.490000 5.000000
15 0 1 0.000000 8.608293 14.910000 5.000000
16 0 1 0.000000 9.838049 15.620000 5.000000
17 0 1 0.000000 9.838049 17.040000 5.000000
18 0 1 0.000000 11.067805 17.750000 5.000000
19 0 1 0.000000 11.067805 19.170000 5.000000
20 0 1 0.000000 12.297561 19.880000 5.000000
21 0 2 0.150000 12.297561 21.300000 5.000000
22 0 1 0.000000 13.527317 22.010000 5.000000
23 0 1 0.000000 13.527317 23.430000 5.000000
24 0 1 0.000000 14.757073 24.140000 5.000000
25 0 1 0.000000 14.757073 25.560000 5.000000
26 0 1 0.000000 15.986829 26.270000 5.000000
27 0 1 0.000000 15.986829 27.690000 5.000000
28 0 1 0.000000 17.216585 28.400000 5.000000
29 0 1 0.000000 17.216585 29.820000 5.000000
30 0 1 0.000000 18.446341 30.530000 5.000000
31 0 1 0.000000 18.446341 31.950000 5.000000
32 0 1 0.000000 19.676097 32.660000 5.000000
33 0 1 0.000000 19.676097 34.080000 5.000000
34 0 1 0.000000 20.905853 34.790000 5.000000
35 0 1 0.000000 20.905853 36.210000 5.000000
36 0 1 0.000000 22.135609 36.920000 5.000000
37 0 1 0.000000 22.135609 38.340000 5.000000
38 0 1 0.000000 23.365365 39.050000 5.000000
39 0 1 0.000000 2.459512 0.000000 5.000000
40 0 1 0.000000 3.689268 0.710000 5.000000
41 0 1 0.000000 3.689268 2.130000 5.000000
42 0 1 0.000000 4.919024 2.840000 5.000000
43 0 1 0.000000 4.919024 4.260000 5.000000
44 0 1 0.000000 6.148780 4.970000 5.000000
45 0 1 0.000000 6.148780 6.390000 5.000000
46 0 1 0.000000 7.378536 7.100000 5.000000
47 0 1 0.000000 7.378536 8.520000 5.000000
48 0 1 0.000000 8.608293 9.230000 5.000000
49 0 2 0.150000 8.608293 10.650000 5.000000
50 0 1 0.000000 9.838049 11.360000 5.000000
51 0 2 0.150000 9.838049 12.780000 5.000000
52 0 1 0.000000 11.067805 13.490000 5.000000
53 0 1 0.000000 11.067805 14.910000 5.000000
54 0 1 0.000000 12.297561 15.620000 5.000000
55 0 1 0.000000 12.297561 17.040000 5.000000
56 0 1 0.000000 13.527317 17.750000 5.000000
57 0 1 0.000000 13.527317 19.170000 5.000000
58 0 1 0.000000 14.757073 19.880000 5.000000
59 0 1 0.000000 14.757073 21.300000 5.000000
60 0 1 0.000000 15.986829 22.010000 5.000000
61 0 1 0.000000 15.986829 23.430000 5.000000
62 0 1 0.000000 17.216585 24.140000 5.000000
63 0 1 0.000000 17.216585 25.560000 5.000000
64 0 1 0.000000 18.446341 26.270000 5.000000
65 0 2 0.150000 18.446341 27.690000 5.000000
66 0 1 0.000000 19.676097 28.400000 5.000000
67 0 1 0.000000 19.676097 29.820000 5.000000
68 0 1 0.000000 20.905853 30.530000 5.000000
69 0 1 0.000000 20.905853 31.950000 5.000000
70 0 1 0.000000 22.135609 32.660000 5.000000
71 0 1 0.000000 22.135609 34.080000 5.000000
72 0 1 0.000000 23.365365 34.790000 5.000000
73 0 1 0.000000 23.365365 36.210000 5.000000
74 0 1 0.000000 24.595121 36.920000 5.000000
75 0 1 0.000000 24.595121 38.340000 5.000000
76 0 1 0.000000 25.824878 39.050000 5.000000
77 0 1 0.000000 4.919024 0.000000 5.000000
78 0 1 0.000000 6.148780 0.710000 5.000000
79 0 1 0.000000 6.148780 2.130000 5.000000
80 0 1 0.000000 7.378536 2.840000 5.000000
81 0 1 0.000000 7.378536 4.260000 5.000000
82 0 1 0.000000 8.608293 4.970000 5.000000
83 0 1 0.000000 8.608293 6.390000 5.000000
84 0 1 0.000000 9.838049 7.100000 5.000000
85 0 1 0.000000 9.838049 8.520000 5.000000
86 0 1 0.000000 11.067805 9.230000 5.000000
87 0 1 0.000000 11.067805 10.650000 5.000000
88 0 1 0.000000 12.297561 11.360000 5.000000
89 0 1 0.000000 12.297561 12.780000 5.000000
90 0 1 0.000000 13.527317 13.490000 5.000000
91 0 1 0.000000 13.527317 14.910000 5.000000
92 0 1 0.000000 14.757073 15.620000 5.000000
93 0 1 0.000000 14.757073 17.040000 5.000000
94 0 1 0.000000 15.986829 17.750000 5.000000
95 0 1 0.000000 15.986829 19.170000 5.000000
96 0 1 0.000000 17.216585 19.880000 5.000000
97 0 1 0.000000 17.216585 21.300000 5.000000
98 0 1 0.000000 18.446341 22.010000 5.000000
99 0 1 0.000000 18.446341 23.430000 5.000000
100 0 1 0.000000 19.676097 24.140000 5.000000
101 0 1 0.000000 19.676097 25.560000 5.000000
102 0 1 0.000000 20.905853 26.270000 5.000000
103 0 1 0.000000 20.905853 27.690000 5.000000
104 0 1 0.000000 22.135609 28.400000 5.000000
105 0 1 0.000000 22.135609 29.820000 5.000000
106 0 1 0.000000 23.365365 30.530000 5.000000
107 0 1 0.000000 23.365365 31.950000 5.000000
108 0 1 0.000000 24.595121 32.660000 5.000000
109 0 1 0.000000 24.595121 34.080000 5.000000
110 0 1 0.000000 25.824878 34.790000 5.000000
111 0 1 0.000000 25.824878 36.210000 5.000000
112 0 1 0.000000 27.054634 36.920000 5.000000
113 0 1 0.000000 27.054634 38.340000 5.000000
114 0 1 0.000000 28.284390 39.050000 5.000000
115 0 1 0.000000 7.378536 0.000000 5.000000
116 0 1 0.000000 8.608293 0.710000 5.000000
117 0 1 0.000000 8.608293 2.130000 5.000000
118 0 1 0.000000 9.838049 2.840000 5.000000
119 0 1 0.000000 9.838049 4.260000 5.000000
120 0 1 0.000000 11.067805 4.970000 5.000000
121 0 1 0.000000 11.067805 6.390000 5.000000
122 0 1 0.000000 12.297561 7.100000 5.000000
123 0 1 0.000000 12.297561 8.520000 5.000000
124 0 2 0.150000 13.527317 9.230000 5.000000
125 0 1 0.000000 13.527317 10.650000 5.000000
126 0 1 0.000000 14.757073 11.360000 5.000000
127 0 1 0.000000 14.757073 12.780000 5.000000
128 0 1 0.000000 15.986829 13.490000 5.000000
129 0 1 0.000000 15.986829 14.910000 5.000000
130 0 1 0.000000 17.216585 15.620000 5.000000
131 0 2 0.150000 17.216585 17.040000 5.000000
132 0 2 0.150000 18.446341 17.750000 5.000000
133 0 1 0.000000 18.446341 19.170000 5.000000
134 0 1 0.000000 19.676097 19.880000 5.000000
135 0 1 0.000000 19.676097 21.300000 5.000000
136 0 1 0.000000 20.905853 22.010000 5.000000
137 0 1 0.000000 20.905853 23.430000 5.000000
138 0 1 0.000000 22.135609 24.140000 5.000000
139 0 2 0.150000 22.135609 25.560000 5.000000
140 0 1 0.000000 23.365365 26.270000 5.000000
141 0 1 0.000000 23.365365 27.690000 5.000000
142 0 1 0.000000 24.595121 28.400000 5.000000
143 0 2 0.150000 24.595121 29.820000 5.000000
144 0 1 0.000000 25.824878 30.530000 5.000000
145 0 1 0.000000 25.824878 31.950000 5.000000
146 0 1 0.000000 27.054634 32.660000 5.000000
147 0 1 0.000000 27.054634 34.080000 5.000000
148 0 1 0.000000 28.284390 34.790000 5.000000
149 0 1 0.000000 28.284390 36.210000 5.000000
150 0 1 0.000000 29.514146 36.920000 5.000000
151 0 2 0.150000 29.514146 38.340000 5.000000
152 0 1 0.000000 30.743902 39.050000 5.000000
153 0 1 0.000000 9.838049 0.000000 5.000000
154 0 1 0.000000 11.067805 0.710000 5.000000
155 0 1 0.000000 11.067805 2.130000 5.000000
156 0 1 0.000000 12.297561 2.840000 5.000000
157 0 1 0.000000 12.297561 4.260000 5.000000
158 0 1 0.000000 13.527317 4.970000 5.000000
159 0 1 0.000000 13.527317 6.390000 5.000000
160 0 1 0.000000 14.757073 7.100000 5.000000
161 0 1 0.000000 14.757073 8.520000 5.000000
162 0 2 0.150000 15.986829 9.230000 5.000000
163 0 2 0.150000 15.986829 10.650000 5.000000
164 0 1 0.000000 17.216585 11.360000 5.000000
165 0 1 0.000000 17.216585 12.780000 5.000000
166 0 1 0.000000 18.446341 13.490000 5.000000
167 0 1 0.000000 18.446341 14.910000 5.000000
168 0 1 0.000000 19.676097 15.620000 5.000000
169 0 1 0.000000 19.676097 17.040000 5.000000
170 0 2 0.150000 20.905853 17.750000 5.000000
171 0 1 0.000000 20.905853 19.170000 5.000000
172 0 1 0.000000 22.135609 19.880000 5.000000
173 0 1 0.000000 22.135609 21.300000 5.000000
174 0 1 0.000000 23.365365 22.010000 5.000000
175 0 1 0.000000 23.365365 23.430000 5.000000
176 0 1 0.000000 24.595121 24.140000 5.000000
177 0 1 0.000000 24.595121 25.560000 5.000000
178 0 1 0.000000 25.824878 26.270000 5.000000
179 0 2 0.150000 25.824878 27.690000 5.000000
180 0 1 0.000000 27.054634 28.400000 5.000000
181 0 1 0.000000 27.054634 29.820000 5.000000
182 0 1 0.000000 28.284390 30.530000 5.000000
183 0 2 0.150000 28.284390 31.950000 5.000000
184 0 1 0.000000 29.514146 32.660000 5.000000
185 0 1 0.000000 29.514146 34.080000 5.000000
186 0 1 0.000000 30.743902 34.790000 5.000000
187 0 1 0.000000 30.743902 36.210000 5.000000
188 0 2 0.150000 31.973658 36.920000 5.000000
189 0 1 0.000000 31.973658 38.340000 5.000000
190 0 1 0.000000 33.203414 39.050000 5.000000
191 0 1 0.000000 12.297561 0.000000 5.000000
192 0 1 0.000000 13.527317 0.710000 5.000000
193 0 1 0.000000 13.527317 2.130000 5.000000
194 0 1 0.000000 14.757073 2.840000 5.000000
195 0 1 0.000000 14.757073 4.260000 5.000000
196 0 1 0.000000 15.986829 4.970000 5.000000
197 0 1 0.000000 15.986829 6.390000 5.000000
198 0 1 0.000000 17.216585 7.100000 5.000000
199 0 1 0.000000 17.216585 8.520000 5.000000
200 0 1 0.000000 18.446341 9.230000 5.000000
201 0 1 0.000000 18.446341 10.650000 5.000000
202 0 1 0.000000 19.676097 11.360000 5.000000
203 0 1 0.000000 19.676097 12.780000 5.000000
204 0 1 0.000000 20.905853 13.490000 5.000000
205 0 1 0.000000 20.905853 14.910000 5.000000
206 0 1 0.000000 22.135609 15.620000 5.000000
207 0 2 0.150000 22.135609 17.040000 5.000000
208 0 1 0.000000 23.365365 17.750000 5.000000
209 0 1 0.000000 23.365365 19.170000 5.000000
210 0 1 0.000000 24.595121 19.880000 5.000000
211 0 1 0.000000 24.595121 21.300000 5.000000
212 0 1 0.000000 25.824878 22.010000 5.000000
213 0 1 0.000000 25.824878 23.430000 5.000000
214 0 1 0.000000 27.054634 24.140000 5.000000
215 0 1 0.000000 27.054634 25.560000 5.000000
216 0 1 0.000000 28.284390 26.270000 5.000000
217 0 1 0.000000 28.284390 27.690000 5.000000
218 0 1 0.000000 29.514146 28.400000 5.000000
219 0 1 0.000000 29.514146 29.820000 5.000000
220 0 1 0.000000 30.743902 30.530000 5.000000
221 0 1 0.000000 30.743902 31.950000 5.000000
222 0 1 0.000000 31.973658 32.660000 5.000000
223 0 1 0.000000 31.973658 34.080000 5.000000
224 0 1 0.000000 33.203414 34.790000 5.000000
225 0 1 0.000000 33.203414 36.210000 5.000000
226 0 1 0.000000 34.433170 36.920000 5.000000
227 0 2 0.150000 34.433170 38.340000 5.000000
228 0 1 0.000000 35.662926 39.050000 5.000000
229 0 2 0.150000 14.757073 0.000000 5.000000
230 0 1 0.000000 15.986829 0.710000 5.000000
231 0 1 0.000000 15.986829 2.130000 5.000000
232 0 1 0.000000 17.216585 2.840000 5.000000
233 0 1 0.000000 17.216585 4.260000 5.000000
234 0 1 0.000000 18.446341 4.970000 5.000000
235 0 1 0.000000 18.446341 6.390000 5.000000
236 0 1 0.000000 19.676097 7.100000 5.000000
237 0 1 0.000000 19.676097 8.520000 5.000000
238 0 1 0.000000 20.905853 9.230000 5.000000
239 0 1 0.000000 20.905853 10.650000 5.000000
240 0 1 0.000000 22.135609 11.360000 5.000000
241 0 1 0.000000 22.135609 12.780000 5.000000
242 0 1 0.000000 23.365365 13.490000 5.000000
243 0 1 0.000000 23.365365 14.910000 5.000000
244 0 2 0.150000 24.595121 15.620000 5.000000
245 0 1 0.000000 24.595121 17.040000 5.000000
246 0 1 0.000000 25.824878 17.750000 5.000000
247 0 1 0.000000 25.824878 19.170000 5.000000
248 0 1 0.000000 27.054634 19.880000 5.000000
249 0 1 0.000000 27.054634 21.300000 5.000000
250 0 2 0.150000 28.284390 22.010000 5.000000
251 0 1 0.000000 28.284390 23.430000 5.000000
252 0 1 0.000000 29.514146 24.140000 5.000000
253 0 1 0.000000 29.514146 25.560000 5.000000
254 0 1 0.000000 30.743902 26.270000 5.000000
255 0 1 0.000000 30.743902 27.690000 5.000000
256 0 2 0.150000 31.973658 28.400000 5.000000
257 0 1 0.000000 31.973658 29.820000 5.000000
258 0 2 0.150000 33.203414 30.530000 5.000000
259 0 1 0.000000 33.203414 31.950000 5.000000
260 0 1 0.000000 34.433170 32.660000 5.000000
261 0 1 0.000000 34.433170 34.080000 5.000000
262 0 1 0.000000 35.662926 34.790000 5.000000
263 0 1 0.000000 35.662926 36.210000 5.000000
264 0 1 0.000000 36.892682 36.920000 5.000000
265 0 1 0.000000 36.892682 38.340000 5.000000
266 0 1 0.000000 38.122438 39.050000 5.000000
267 0 1 0.000000 17.216585 0.000000 5.000000
268 0 1 0.000000 18.446341 0.710000 5.000000
269 0 1 0.000000 18.446341 2.130000 5.000000
270 0 1 0.000000 19.676097 2.840000 5.000000
271 0 1 0.000000 19.676097 4.260000 5.000000
272 0 1 0.000000 20.905853 4.970000 5.000000
273 0 1 0.000000 20.905853 6.390000 5.000000
274 0 1 0.000000 22.135609 7.100000 5.000000
275 0 1 0.000000 22.135609 8.520000 5.000000
276 0 1 0.000000 23.365365 9.230000 5.000000
277 0 1 0.000000 23.365365 10.650000 5.000000
278 0 1 0.000000 24.595121 11.360000 5.000000
279 0 1 0.000000 24.595121 12.780000 5.000000
280 0 1 0.000000 25.824878 13.490000 5.000000
281 0 1 0.000000 25.824878 14.910000 5.000000
282 0 1 0.000000 27.054634 15.620000 5.000000
283 0 1 0.000000 27.054634 17.040000 5.000000
284 0 1 0.000000 28.284390 17.750000 5.000000
285 0 1 0.000000 28.284390 19.170000 5.000000
286 0 1 0.000000 29.514146 19.880000 5.000000
287 0 1 0.000000 29.514146 21.300000 5.000000
288 0 1 0.000000 30.743902 22.010000 5.000000
289 0 1 0.000000 30.743902 23.430000 5.000000
290 0 1 0.000000 31.973658 24.140000 5.000000
291 0 1 0.000000 31.973658 25.560000 5.000000
292 0 1 0.000000 33.203414 26.270000 5.000000
293 0 1 0.000000 33.203414 27.690000 5.000000
294 0 1 0.000000 34.433170 28.400000 5.000000
295 0 1 0.000000 34.433170 29.820000 5.000000
296 0 1 0.000000 35.662926 30.530000 5.000000
297 0 1 0.000000 35.662926 31.950000 5.000000
298 0 1 0.000000 36.892682 32.660000 5.000000
299 0 1 0.000000 36.892682 34.080000 5.000000
300 0 1 0.000000 38.122438 34.790000 5.000000
301 0 1 0.000000 38.122438 36.210000 5.000000
302 0 1 0.000000 39.352194 36.920000 5.000000
303 0 1 0.000000 39.352194 38.340000 5.000000
304 0 1 0.000000 40.581950 39.050000 5.000000
305 0 1 0.000000 19.676097 0.000000 5.000000
306 0 1 0.000000 20.905853 0.710000 5.000000
307 0 1 0.000000 20.905853 2.130000 5.000000
308 0 2 0.150000 22.135609 2.840000 5.000000
309 0 1 0.000000 22.135609 4.260000 5.000000
310 0 1 0.000000 23.365365 4.970000 5.000000
311 0 1 0.000000 23.365365 6.390000 5.000000
312 0 1 0.000000 24.595121 7.100000 5.000000
313 0 1 0.000000 24.595121 8.520000 5.000000
314 0 1 0.000000 25.824878 9.230000 5.000000
315 0 1 0.000000 25.824878 10.650000 5.000000
316 0 2 0.150000 27.054634 11.360000 5.000000
317 0 1 0.000000 27.054634 12.780000 5.000000
318 0 1 0.000000 28.284390 13.490000 5.000000
319 0 1 0.000000 28.284390 14.910000 5.000000
320 0 1 0.000000 29.514146 15.620000 5.000000
321 0 1 0.000000 29.514146 17.040000 5.000000
322 0 1 0.000000 30.743902 17.750000 5.000000
323 0 1 0.000000 30.743902 19.170000 5.000000
324 0 1 0.000000 31.973658 19.880000 5.000000
325 0 1 0.000000 31.973658 21.300000 5.000000
326 0 1 0.000000 33.203414 22.010000 5.000000
327 0 1 0.000000 33.203414 23.430000 5.000000
328 0 1 0.000000 34.433170 24.140000 5.000000
329 0 1 0.000000 34.433170 25.560000 5.000000
330 0 1 0.000000 35.662926 26.270000 5.000000
331 0 1 0.000000 35.662926 27.690000 5.000000
332 0 1 0.000000 36.892682 28.400000 5.000000
333 0 1 0.000000 36.892682 29.820000 5.000000
334 0 1 0.000000 38.122438 30.530000 5.000000
335 0 1 0.000000 38.122438 31.950000 5.000000
336 0 1 0.000000 39.352194 32.660000 5.000000
337 0 1 0.000000 39.352194 34.080000 5.000000
338 0 1 0.000000 40.581950 34.790000 5.000000
339 0 2 0.150000 40.581950 36.210000 5.000000
340 0 1 0.000000 41.811706 36.920000 5.000000
341 0 1 0.000000 41.811706 38.340000 5.000000
342 0 1 0.000000 43.041463 39.050000 5.000000
343 0 1 0.000000 22.135609 0.000000 5.000000
344 0 1 0.000000 23.365365 0.710000 5.000000
345 0 1 0.000000 23.365365 2.130000 5.000000
346 0 1 0.000000 24.595121 2.840000 5.000000
347 0 1 0.000000 24.595121 4.260000 5.000000
348 0 1 0.000000 25.824878 4.970000 5.000000
349 0 1 0.000000 25.824878 6.390000 5.000000
350 0 1 0.000000 27.054634 7.100000 5.000000
351 0 2 0.150000 27.054634 8.520000 5.000000
352 0 1 0.000000 28.284390 9.230000 5.000000
353 0 1 0.000000 28.284390 10.650000 5.000000
354 0 1 0.000000 29.514146 11.360000 5.000000
355 0 1 0.000000 29.514146 12.780000 5.000000
356 0 1 0.000000 30.743902 13.490000 5.000000
357 0 1 0.000000 30.743902 14.910000 5.000000
358 0 1 0.000000 31.973658 15.620000 5.000000
359 0 1 0.000000 31.973658 17.040000 5.000000
360 0 2 0.150000 33.203414 17.750000 5.000000
361 0 1 0.000000 33.203414 19.170000 5.000000
362 0 1 0.000000 34.433170 19.880000 5.000000
363 0 1 0.000000 34.433170 21.300000 5.000000
364 0 2 0.150000 35.662926 22.010000 5.000000
365 0 1 0.000000 35.662926 23.430000 5.000000
366 0 2 0.150000 36.892682 24.140000 5.000000
367 0 1 0.000000 36.892682 25.560000 5.000000
368 0 1 0.000000 38.122438 26.270000 5.000000
369 0 1 0.000000 38.122438 27.690000 5.000000
370 0 1 0.000000 39.352194 28.400000 5.000000
371 0 2 0.150000 39.352194 29.820000 5.000000
372 0 1 0.000000 40.581950 30.530000 5.000000
373 0 1 0.000000 40.581950 31.950000 5.000000
374 0 2 0.150000 41.811706 32.660000 5.000000
375 0 1 0.000000 41.811706 34.080000 5.000000
376 0 1 0.000000 43.041463 34.790000 5.000000
377 0 1 0.000000 43.041463 36.210000 5.000000
378 0 2 0.150000 44.271219 36.920000 5.000000
379 0 1 0.000000 44.271219 38.340000 5.000000
380 0 1 0.000000 45.500975 39.050000 5.000000
381 0 1 0.000000 24.595121 0.000000 5.000000
382 0 1 0.000000 25.824878 0.710000 5.000000
383 0 1 0.000000 25.824878 2.130000 5.000000
384 0 2 0.150000 27.054634 2.840000 5.000000
385 0 1 0.000000 27.054634 4.260000 5.000000
386 0 1 0.000000 28.284390 4.970000 5.000000
387 0 1 0.000000 28.284390 6.390000 5.000000
388 0 1 0.000000 29.514146 7.100000 5.000000
389 0 1 0.000000 29.514146 8.520000 5.000000
390 0 1 0.000000 30.743902 9.230000 5.000000
391 0 1 0.000000 30.743902 10.650000 5.000000
392 0 1 0.000000 31.973658 11.360000 5.000000
393 0 1 0.000000 31.973658 12.780000 5.000000
394 0 1 0.000000 33.203414 13.490000 5.000000
395 0 1 0.000000 33.203414 14.910000 5.000000
396 0 2 0.150000 34.433170 15.620000 5.000000
397 0 1 0.000000 34.433170 17.040000 5.000000
398 0 1 0.000000 35.662926 17.750000 5.000000
399 0 1 0.000000 35.662926 19.170000 5.000000
400 0 1 0.000000 36.892682 19.880000 5.000000
401 0 1 0.000000 36.892682 21.300000 5.000000
402 0 1 0.000000 38.122438 22.010000 5.000000
403 0 1 0.000000 38.122438 23.430000 5.000000
404 0 1 0.000000 39.352194 24.140000 5.000000
405 0 1 0.000000 39.352194 25.560000 5.000000
406 0 1 0.000000 40.581950 26.270000 5.000000
407 0 1 0.000000 40.581950 27.690000 5.000000
408 0 1 0.000000 41.811706 28.400000 5.000000
409 0 1 0.000000 41.811706 29.820000 5.000000
410 0 1 0.000000 43.041463 30.530000 5.000000
411 0 1 0.000000 43.041463 31.950000 5.000000
412 0 1 0.000000 44.271219 32.660000 5.000000
413 0 1 0.000000 44.271219 34.080000 5.000000
414 0 1 0.000000 45.500975 34.790000 5.000000
415 0 2 0.150000 45.500975 36.210000 5.000000
416 0 1 0.000000 46.730731 36.920000 5.000000
417 0 1 0.000000 46.730731 38.340000 5.000000
418 0 1 0.000000 47.960487 39.050000 5.000000
419 0 2 0.150000 27.054634 0.000000 5.000000
420 0 1 0.000000 28.284390 0.710000 5.000000
421 0 1 0.000000 28.284390 2.130000 5.000000
422 0 1 0.000000 29.514146 2.840000 5.000000
423 0 1 0.000000 29.514146 4.260000 5.000000
424 0 1 0.000000 30.743902 4.970000 5.000000
425 0 1 0.000000 30.743902 6.390000 5.000000
426 0 1 0.000000 31.973658 7.100000 5.000000
427 0 1 0.000000 31.973658 8.520000 5.000000
428 0 1 0.000000 33.203414 9.230000 5.000000
429 0 1 0.000000 33.203414 10.650000 5.000000
430 0 1 0.000000 34.433170 11.360000 5.000000
431 0 1 0.000000 34.433170 12.780000 5.000000
432 0 1 0.000000 35.662926 13.490000 5.000000
433 0 1 0.000000 35.662926 14.910000 5.000000
434 0 1 0.000000 36.892682 15.620000 5.000000
435 0 2 0.150000 36.892682 17.040000 5.000000
436 0 2 0.150000 38.122438 17.750000 5.000000
437 0 2 0.150000 38.122438 19.170000 5.000000
438 0 2 0.150000 39.352194 19.880000 5.000000
439 0 1 0.000000 39.352194 21.300000 5.000000
440 0 2 0.150000 40.581950 22.010000 5.000000
441 0 1 0.000000 40.581950 23.430000 5.000000
442 0 1 0.000000 41.811706 24.140000 5.000000
443 0 1 0.000000 41.811706 25.560000 5.000000
444 0 1 0.000000 43.041463 26.270000 5.000000
445 0 2 0.150000 43.041463 27.690000 5.000000
446 0 1 0.000000 44.271219 28.400000 5.000000
447 0 2 0.150000 44.271219 29.820000 5.000000
448 0 1 0.000000 45.500975 30.530000 5.000000
449 0 1 0.000000 45.500975 31.950000 5.000000
450 0 1 0.000000 46.730731 32.660000 5.000000
451 0 1 0.000000 46.730731 34.080000 5.000000
452 0 1 0.000000 47.960487 34.790000 5.000000
453 0 1 0.000000 47.960487 36.210000 5.000000
454 0 1 0.000000 49.190243 36.920000 5.000000
455 0 1 0.000000 49.190243 38.340000 5.000000
456 0 1 0.000000 50.419999 39.050000 5.000000
457 0 1 0.000000 29.514146 0.000000 5.000000
458 0 1 0.000000 30.743902 0.710000 5.000000
459 0 1 0.000000 30.743902 2.130000 5.000000
460 0 1 0.000000 31.973658 2.840000 5.000000
461 0 1 0.000000 31.973658 4.260000 5.000000
462 0 1 0.000000 33.203414 4.970000 5.000000
463 0 1 0.000000 33.203414 6.390000 5.000000
464 0 1 0.000000 34.433170 7.100000 5.000000
465 0 1 0.000000 34.433170 8.520000 5.000000
466 0 1 0.000000 35.662926 9.230000 5.000000
467 0 1 0.000000 35.662926 10.650000 5.000000
468 0 1 0.000000 36.892682 11.360000 5.000000
469 0 1 0.000000 36.892682 12.780000 5.000000
470 0 1 0.000000 38.122438 13.490000 5.000000
471 0 1 0.000000 38.122438 14.910000 5.000000
472 0 1 0.000000 39.352194 15.620000 5.000000
473 0 1 0.000000 39.352194 17.040000 5.000000
474 0 1 0.000000 40.581950 17.750000 5.000000
475 0 1 0.000000 40.581950 19.170000 5.000000
476 0 1 0.000000 41.811706 19.880000 5.000000
477 0 1 0.000000 41.811706 21.300000 5.000000
478 0 1 0.000000 43.041463 22.010000 5.000000
479 0 1 0.000000 43.041463 23.430000 5.000000
480 0 1 0.000000 44.271219 24.140000 5.000000
481 0 1 0.000000 44.271219 25.560000 5.000000
482 0 1 0.000000 45.500975 26.270000 5.000000
483 0 1 0.000000 45.500975 27.690000 5.000000
484 0 1 0.000000 46.730731 28.400000 5.000000
485 0 1 0.000000 46.730731 29.820000 5.000000
486 0 2 0.150000 47.960487 30.530000 5.000000
487 0 1 0.000000 47.960487 31.950000 5.000000
488 0 1 0.000000 49.190243 32.660000 5.000000
489 0 1 0.000000 49.190243 34.080000 5.000000
490 0 1 0.000000 50.419999 34.790000 5.000000
491 0 1 0.000000 50.419999 36.210000 5.000000
492 0 1 0.000000 51.649755 36.920000 5.000000
493 0 1 0.000000 51.649755 38.340000 5.000000
494 0 1 0.000000 52.879511 39.050000 5.000000
495 0 1 0.000000 31.973658 0.000000 5.000000
496 0 1 0.000000 33.203414 0.710000 5.000000
497 0 1 0.000000 33.203414 2.130000 5.000000
498 0 1 0.000000 34.433170 2.840000 5.000000
499 0 1 0.000000 34.433170 4.260000 5.000000
500 0 1 0.000000 35.662926 4.970000 5.000000
501 0 1 0.000000 35.662926 6.390000 5.000000
502 0 1 0.000000 36.892682 7.100000 5.000000
503 0 1 0.000000 36.892682 8.520000 5.000000
504 0 2 0.150000 38.122438 9.230000 5.000000
505 0 1 0.000000 38.122438 10.650000 5.000000
506 0 1 0.000000 39.352194 11.360000 5.000000
507 0 1 0.000000 39.352194 12.780000 5.000000
508 0 1 0.000000 40.581950 13.490000 5.000000
509 0 1 0.000000 40.581950 14.910000 5.000000
510 0 2 0.150000 41.811706 15.620000 5.000000
511 0 1 0.000000 41.811706 17.040000 5.000000
512 0 1 0.000000 43.041463 17.750000 5.000000
513 0 2 0.150000 43.041463 19.170000 5.000000
514 0 1 0.000000 44.271219 19.880000 5.000000
515 0 1 0.000000 44.271219 21.300000 5.000000
516 0 1 0.000000 45.500975 22.010000 5.000000
517 0 1 0.000000 45.500975 23.430000 5.000000
518 0 1 0.000000 46.730731 24.140000 5.000000
519 0 1 0.000000 46.730731 25.560000 5.000000
520 0 2 0.150000 47.960487 26.270000 5.000000
521 0 2 0.150000 47.960487 27.690000 5.000000
522 0 1 0.000000 49.190243 28.400000 5.000000
523 0 2 0.150000 49.190243 29.820000 5.000000
524 0 1 0.000000 50.419999 30.530000 5.000000
525 0 2 0.150000 50.419999 31.950000 5.000000
526 0 1 0.000000 51.649755 32.660000 5.000000
527 0 1 0.000000 51.649755 34.080000 5.000000
528 0 1 0.000000 52.879511 34.790000 5.000000
529 0 2 0.150000 52.879511 36.210000 5.000000
530 0 1 0.000000 54.109267 36.920000 5.000000
531 0 1 0.000000 54.109267 38.340000 5.000000
532 0 1 0.000000 55.339023 39.050000 5.000000
533 0 1 0.000000 34.433170 0.000000 5.000000
534 0 1 0.000000 35.662926 0.710000 5.000000
535 0 1 0.000000 35.662926 2.130000 5.000000
536 0 1 0.000000 36.892682 2.840000 5.000000
537 0 2 0.150000 36.892682 4.260000 5.000000
538 0 1 0.000000 38.122438 4.970000 5.000000
539 0 1 0.000000 38.122438 6.390000 5.000000
540 0 1 0.000000 39.352194 7.100000 5.000000
541 0 1 0.000000 39.352194 8.520000 5.000000
542 0 2 0.150000 40.581950 9.230000 5.000000
543 0 1 0.000000 40.581950 10.650000 5.000000
544 0 1 0.000000 41.811706 11.360000 5.000000
545 0 1 0.000000 41.811706 12.780000 5.000000
546 0 1 0.000000 43.041463 13.490000 5.000000
547 0 1 0.000000 43.041463 14.910000 5.000000
548 0 1 0.000000 44.271219 15.620000 5.000000
549 0 1 0.000000 44.271219 17.040000 5.000000
550 0 1 0.000000 45.500975 17.750000 5.000000
551 0 2 0.150000 45.500975 19.170000 5.000000
552 0 1 0.000000 46.730731 19.880000 5.000000
553 0 1 0.000000 46.730731 21.300000 5.000000
554 0 1 0.000000 47.960487 22.010000 5.000000
555 0 1 0.000000 47.960487 23.430000 5.000000
556 0 1 0.000000 49.190243 24.140000 5.000000
557 0 1 0.000000 49.190243 25.560000 5.000000
558 0 1 0.000000 50.419999 26.270000 5.000000
559 0 1 0.000000 50.419999 27.690000 5.000000
560 0 1 0.000000 51.649755 28.400000 5.000000
561 0 1 0.000000 51.649755 29.820000 5.000000
562 0 1 0.000000 52.879511 30.530000 5.000000
563 0 1 0.000000 52.879511 31.950000 5.000000
564 0 1 0.000000 54.109267 32.660000 5.000000
565 0 2 0.150000 54.109267 34.080000 5.000000
566 0 1 0.000000 55.339023 34.790000 5.000000
567 0 1 0.000000 55.339023 36.210000 5.000000
568 0 1 0.000000 56.568779 36.920000 5.000000
569 0 1 0.000000 56.568779 38.340000 5.000000
570 0 1 0.000000 57.798535 39.050000 5.000000
571 0 1 0.000000 36.892682 0.000000 5.000000
572 0 1 0.000000 38.122438 0.710000 5.000000
573 0 1 0.000000 38.122438 2.130000 5.000000
574 0 1 0.000000 39.352194 2.840000 5.000000
575 0 2 0.150000 39.352194 4.260000 5.000000
576 0 1 0.000000 40.581950 4.970000 5.000000
577 0 1 0.000000 40.581950 6.390000 5.000000
578 0 1 0.000000 41.811706 7.100000 5.000000
579 0 1 0.000000 41.811706 8.520000 5.000000
580 0 1 0.000000 43.041463 9.230000 5.000000
581 0 1 0.000000 43.041463 10.650000 5.000000
582 0 1 0.000000 44.271219 11.360000 5.000000
583 0 1 0.000000 44.271219 12.780000 5.000000
584 0 1 0.000000 45.500975 13.490000 5.000000
585 0 1 0.000000 45.500975 14.910000 5.000000
586 0 1 0.000000 46.730731 15.620000 5.000000
587 0 2 0.150000 46.730731 17.040000 5.000000
588 0 2 0.150000 47.960487 17.750000 5.000000
589 0 1 0.000000 47.960487 19.170000 5.000000
590 0 1 0.000000 49.190243 19.880000 5.000000
591 0 1 0.000000 49.190243 21.300000 5.000000
592 0 1 0.000000 50.419999 22.010000 5.000000
593 0 1 0.000000 50.419999 23.430000 5.000000
594 0 1 0.000000 51.649755 24.140000 5.000000
595 0 1 0.000000 51.649755 25.560000 5.000000
596 0 1 0.000000 52.879511 26.270000 5.000000
597 0 1 0.000000 52.879511 27.690000 5.000000
598 0 1 0.000000 54.109267 28.400000 5.000000
599 0 1 0.000000 54.109267 29.820000 5.000000
600 0 1 0.000000 55.339023 30.530000 5.000000
601 0 1 0.000000 55.339023 31.950000 5.000000
602 0 1 0.000000 56.568779 32.660000 5.000000
603 0 1 0.000000 56.568779 34.080000 5.000000
604 0 1 0.000000 57.798535 34.790000 5.000000
605 0 1 0.000000 57.798535 36.210000 5.000000
606 0 1 0.000000 59.028292 36.920000 5.000000
607 0 1 0.000000 59.028292 38.340000 5.000000
608 0 1 0.000000 60.258048 39.050000 5.000000
609 0 1 0.000000 39.352194 0.000000 5.000000
610 0 1 0.000000 40.581950 0.710000 5.000000
611 0 2 0.150000 40.581950 2.130000 5.000000
612 0 2 0.150000 41.811706 2.840000 5.000000
613 0 1 0.000000 41.811706 4.260000 5.000000
614 0 2 0.150000 43.041463 4.970000 5.000000
615 0 1 0.000000 43.041463 6.390000 5.000000
616 0 2 0.150000 44.271219 7.100000 5.000000
617 0 1 0.000000 44.271219 8.520000 5.000000
618 0 1 0.000000 45.500975 9.230000 5.000000
619 0 1 0.000000 45.500975 10.650000 5.000000
620 0 1 0.000000 46.730731 11.360000 5.000000
621 0 1 0.000000 46.730731 12.780000 5.000000
622 0 2 0.150000 47.960487 13.490000 5.000000
623 0 1 0.000000 47.960487 14.910000 5.000000
624 0 1 0.000000 49.190243 15.620000 5.000000
625 0 1 0.000000 49.190243 17.040000 5.000000
626 0 1 0.000000 50.419999 17.750000 5.000000
627 0 1 0.000000 50.419999 19.170000 5.000000
628 0 1 0.000000 51.649755 19.880000 5.000000
629 0 1 0.000000 51.649755 21.300000 5.000000
630 0 1 0.000000 52.879511 22.010000 5.000000
631 0 1 0.000000 52.879511 23.430000 5.000000
632 0 1 0.000000 54.109267 24.140000 5.000000
633 0 1 0.000000 54.109267 25.560000 5.000000
634 0 1 0.000000 55.339023 26.270000 5.000000
635 0 1 0.000000 55.339023 27.690000 5.000000
636 0 1 0.000000 56.568779 28.400000 5.000000
637 0 2 0.150000 56.568779 29.820000 5.000000
638 0 1 0.000000 57.798535 30.530000 5.000000
639 0 1 0.000000 57.798535 31.950000 5.000000
640 0 1 0.000000 59.028292 32.660000 5.000000
641 0 1 0.000000 59.028292 34.080000 5.000000
642 0 1 0.000000 60.258048 34.790000 5.000000
643 0 2 0.150000 60.258048 36.210000 5.000000
644 0 1 0.000000 61.487804 36.920000 5.000000
645 0 1 0.000000 61.487804 38.340000 5.000000
646 0 1 0.000000 62.717560 39.050000 5.000000
647 0 2 0.150000 41.811706 0.000000 5.000000
648 0 1 0.000000 43.041463 0.710000 5.000000
649 0 1 0.000000 43.041463 2.130000 5.000000
650 0 1 0.000000 44.271219 2.840000 5.000000
651 0 1 0.000000 44.271219 4.260000 5.000000
652 0 1 0.000000 45.500975 4.970000 5.000000
653 0 1 0.000000 45.500975 6.390000 5.000000
654 0 1 0.000000 46.730731 7.100000 5.000000
655 0 1 0.000000 46.730731 8.520000 5.000000
656 0 1 0.000000 47.960487 9.230000 5.000000
657 0 1 0.000000 47.960487 10.650000 5.000000
658 0 1 0.000000 49.190243 11.360000 5.000000
659 0 1 0.000000 49.190243 12.780000 5.000000
660 0 1 0.000000 50.419999 13.490000 5.000000
661 0 2 0.150000 50.419999 14.910000 5.000000
662 0 1 0.000000 51.649755 15.620000 5.000000
663 0 2 0.150000 51.649755 17.040000 5.000000
664 0 1 0.000000 52.879511 17.750000 5.000000
665 0 1 0.000000 52.879511 19.170000 5.000000
666 0 1 0.000000 54.109267 19.880000 5.000000
667 0 1 0.000000 54.109267 21.300000 5.000000
668 0 2 0.150000 55.339023 22.010000 5.000000
669 0 1 0.000000 55.339023 23.430000 5.000000
670 0 1 0.000000 56.568779 24.140000 5.000000
671 0 1 0.000000 56.568779 25.560000 5.000000
672 0 1 0.000000 57.798535 26.270000 5.000000
673 0 2 0.150000 57.798535 27.690000 5.000000
674 0 1 0.000000 59.028292 28.400000 5.000000
675 0 1 0.000000 59.028292 29.820000 5.000000
676 0 1 0.000000 60.258048 30.530000 5.000000
677 0 1 0.000000 60.258048 31.950000 5.000000
678 0 1 0.000000 61.487804 32.660000 5.000000
679 0 1 0.000000 61.487804 34.080000 5.000000
680 0 1 0.000000 62.717560 34.790000 5.000000
681 0 1 0.000000 62.717560 36.210000 5.000000
682 0 1 0.000000 63.947316 36.920000 5.000000
683 0 1 0.000000 63.947316 38.340000 5.000000
684 0 1 0.000000 65.177072 39.050000 5.000000
685 0 1 0.000000 44.271219 0.000000 5.000000
686 0 1 0.000000 45.500975 0.710000 5.000000
687 0 1 0.000000 45.500975 2.130000 5.000000
688 0 2 0.150000 46.730731 2.840000 5.000000
689 0 1 0.000000 46.730731 4.260000 5.000000
690 0 1 0.000000 47.960487 4.970000 5.000000
691 0 1 0.000000 47.960487 6.390000 5.000000
692 0 1 0.000000 49.190243 7.100000 5.000000
693 0 1 0.000000 49.190243 8.520000 5.000000
694 0 1 0.000000 50.419999 9.230000 5.000000
695 0 1 0.000000 50.419999 10.650000 5.000000
696 0 1 0.000000 51.649755 11.360000 5.000000
697 0 1 0.000000 51.649755 12.780000 5.000000
698 0 1 0.000000 52.879511 13.490000 5.000000
699 0 2 0.150000 52.879511 14.910000 5.000000
700 0 1 0.000000 54.109267 15.620000 5.000000
701 0 1 0.000000 54.109267 17.040000 5.000000
702 0 1 0.000000 55.339023 17.750000 5.000000
703 0 1 0.000000 55.339023 19.170000 5.000000
704 0 1 0.000000 56.568779 19.880000 5.000000
705 0 1 0.000000 56.568779 21.300000 5.000000
706 0 2 0.150000 57.798535 22.010000 5.000000
707 0 1 0.000000 57.798535 23.430000 5.000000
708 0 1 0.000000 59.028292 24.140000 5.000000
709 0 1 0.000000 59.028292 25.560000 5.000000
710 0 1 0.000000 60.258048 26.270000 5.000000
711 0 1 0.000000 60.258048 27.690000 5.000000
712 0 1 0.000000 61.487804 28.400000 5.000000
713 0 1 0.000000 61.487804 29.820000 5.000000
714 0 1 0.000000 62.717560 30.530000 5.000000
715 0 1 0.000000 62.717560 31.950000 5.000000
716 0 1 0.000000 63.947316 32.660000 5.000000
717 0 1 0.000000 63.947316 34.080000 5.000000
718 0 1 0.000000 65.177072 34.790000 5.000000
719 0 2 0.150000 65.177072 36.210000 5.000000
720 0 1 0.000000 66.406828 36.920000 5.000000
721 0 2 0.150000 66.406828 38.340000 5.000000
722 0 1 0.000000 67.636584 39.050000 5.000000
723 0 1 0.000000 46.730731 0.000000 5.000000
724 0 1 0.000000 47.960487 0.710000 5.000000
725 0 1 0.000000 47.960487 2.130000 5.000000
726 0 1 0.000000 49.190243 2.840000 5.000000
727 0 1 0.000000 49.190243 4.260000 5.000000
728 0 1 0.000000 50.419999 4.970000 5.000000
729 0 1 0.000000 50.419999 6.390000 5.000000
730 0 1 0.000000 51.649755 7.100000 5.000000
731 0 1 0.000000 51.649755 8.520000 5.000000
732 0 1 0.000000 52.879511 9.230000 5.000000
733 0 1 0.000000 52.879511 10.650000 5.000000
734 0 1 0.000000 54.109267 11.360000 5.000000
735 0 1 0.000000 54.109267 12.780000 5.000000
736 0 1 0.000000 55.339023 13.490000 5.000000
737 0 1 0.000000 55.339023 14.910000 5.000000
738 0 1 0.000000 56.568779 15.620000 5.000000
739 0 1 0.000000 56.568779 17.040000 5.000000
740 0 1 0.000000 57.798535 17.750000 5.000000
741 0 1 0.000000 57.798535 19.170000 5.000000
742 0 1 0.000000 59.028292 19.880000 5.000000
743 0 1 0.000000 59.028292 21.300000 5.000000
744 0 1 0.000000 60.258048 22.010000 5.000000
745 0 1 0.000000 60.258048 23.430000 5.000000
746 0 1 0.000000 61.487804 24.140000 5.000000
747 0 1 0.000000 61.487804 25.560000 5.000000
748 0 1 0.000000 62.717560 26.270000 5.000000
749 0 1 0.000000 62.717560 27.690000 5.000000
750 0 1 0.000000 63.947316 28.400000 5.000000
751 0 1 0.000000 63.947316 29.820000 5.000000
752 0 1 0.000000 65.177072 30.530000 5.000000
753 0 1 0.000000 65.177072 31.950000 5.000000
754 0 1 0.000000 66.406828 32.660000 5.000000
755 0 1 0.000000 66.406828 34.080000 5.000000
756 0 1 0.000000 67.636584 34.790000 5.000000
757 0 1 0.000000 67.636584 36.210000 5.000000
758 0 1 0.000000 68.866340 36.920000 5.000000
759 0 1 0.000000 68.866340 38.340000 5.000000
760 0 2 0.150000 70.096096 39.050000 5.000000
761 0 1 0.000000 49.190243 0.000000 5.000000
762 0 1 0.000000 50.419999 0.710000 5.000000
763 0 1 0.000000 50.419999 2.130000 5.000000
764 0 1 0.000000 51.649755 2.840000 5.000000
765 0 1 0.000000 51.649755 4.260000 5.000000
766 0 1 0.000000 52.879511 4.970000 5.000000
767 0 1 0.000000 52.879511 6.390000 5.000000
768 0 1 0.000000 54.109267 7.100000 5.000000
769 0 1 0.000000 54.109267 8.520000 5.000000
770 0 1 0.000000 55.339023 9.230000 5.000000
771 0 2 0.150000 55.339023 10.650000 5.000000
772 0 1 0.000000 56.568779 11.360000 5.000000
773 0 1 0.000000 56.568779 12.780000 5.000000
774 0 2 0.150000 57.798535 13.490000 5.000000
775 0 1 0.000000 57.798535 14.910000 5.000000
776 0 1 0.000000 59.028292 15.620000 5.000000
777 0 1 0.000000 59.028292 17.040000 5.000000
778 0 1 0.000000 60.258048 17.750000 5.000000
779 0 1 0.000000 60.258048 19.170000 5.000000
780 0 1 0.000000 61.487804 19.880000 5.000000
781 0 1 0.000000 61.487804 21.300000 5.000000
782 0 1 0.000000 62.717560 22.010000 5.000000
783 0 1 0.000000 62.717560 23.430000 5.000000
784 0 1 0.000000 63.947316 24.140000 5.000000
785 0 1 0.000000 63.947316 25.560000 5.000000
786 0 1 0.000000 65.177072 26.270000 5.000000
787 0 2 0.150000 65.177072 27.690000 5.000000
788 0 1 0.000000 66.406828 28.400000 5.000000
789 0 1 0.000000 66.406828 29.820000 5.000000
790 0 1 0.000000 67.636584 30.530000 5.000000
791 0 1 0.000000 67.636584 31.950000 5.000000
792 0 1 0.000000 68.866340 32.660000 5.000000
793 0 1 0.000000 68.866340 34.080000 5.000000
794 0 1 0.000000 70.096096 34.790000 5.000000
795 0 1 0.000000 70.096096 36.210000 5.000000
796 0 1 0.000000 71.325852 36.920000 5.000000
797 0 2 0.150000 71.325852 38.340000 5.000000
798 0 1 0.000000 72.555608 39.050000 5.000000
799 0 1 0.000000 51.649755 0.000000 5.000000
800 0 1 0.000000 52.879511 0.710000 5.000000
801 0 1 0.000000 52.879511 2.130000 5.000000
802 0 1 0.000000 54.109267 2.840000 5.000000
803 0 1 0.000000 54.109267 4.260000 5.000000
804 0 1 0.000000 55.339023 4.970000 5.000000
805 0 2 0.150000 55.339023 6.390000 5.000000
806 0 1 0.000000 56.568779 7.100000 5.000000
807 0 2 0.150000 56.568779 8.520000 5.000000
808 0 1 0.000000 57.798535 9.230000 5.000000
809 0 1 0.000000 57.798535 10.650000 5.000000
810 0 1 0.000000 59.028292 11.360000 5.000000
811 0 1 0.000000 59.028292 12.780000 5.000000
812 0 1 0.000000 60.258048 13.490000 5.000000
813 0 1 0.000000 60.258048 14.910000 5.000000
814 0 1 0.000000 61.487804 15.620000 5.000000
815 0 1 0.000000 61.487804 17.040000 5.000000
816 0 1 0.000000 62.717560 17.750000 5.000000
817 0 1 0.000000 62.717560 19.170000 5.000000
818 0 1 0.000000 63.947316 19.880000 5.000000
819 0 1 0.000000 63.947316 21.300000 5.000000
820 0 1 0.000000 65.177072 22.010000 5.000000
821 0 1 0.000000 65.177072 23.430000 5.000000
822 0 1 0.000000 66.406828 24.140000 5.000000
823 0 1 0.000000 66.406828 25.560000 5.000000
824 0 1 0.000000 67.636584 26.270000 5.000000
825 0 1 0.000000 67.636584 27.690000 5.000000
826 0 1 0.000000 68.866340 28.400000 5.000000
827 0 1 0.000000 68.866340 29.820000 5.000000
828 0 1 0.000000 70.096096 30.530000 5.000000
829 0 1 0.000000 70.096096 31.950000 5.000000
830 0 1 0.000000 71.325852 32.660000 5.000000
831 0 1 0.000000 71.325852 34.080000 5.000000
832 0 1 0.000000 72.555608 34.790000 5.000000
833 0 1 0.000000 72.555608 36.210000 5.000000
834 0 1 0.000000 73.785364 36.920000 5.000000
835 0 2 0.150000 73.785364 38.340000 5.000000
836 0 1 0.000000 75.015120 39.050000 5.000000
837 0 1 0.000000 54.109267 0.000000 5.000000
838 0 1 0.000000 55.339023 0.710000 5.000000
839 0 1 0.000000 55.339023 2.130000 5.000000
840 0 1 0.000000 56.568779 2.840000 5.000000
841 0 1 0.000000 56.568779 4.260000 5.000000
842 0 1 0.000000 57.798535 4.970000 5.000000
843 0 1 0.000000 57.798535 6.390000 5.000000
844 0 1 0.000000 59.028292 7.100000 5.000000
845 0 1 0.000000 59.028292 8.520000 5.000000
846 0 1 0.000000 60.258048 9.230000 5.000000
847 0 1 0.000000 60.258048 10.650000 5.000000
848 0 1 0.000000 61.487804 11.360000 5.000000
849 0 1 0.000000 61.487804 12.780000 5.000000
850 0 1 0.000000 62.717560 13.490000 5.000000
851 0 1 0.000000 62.717560 14.910000 5.000000
852 0 1 0.000000 63.947316 15.620000 5.000000
853 0 1 0.000000 63.947316 17.040000 5.000000
854 0 1 0.000000 65.177072 17.750000 5.000000
855 0 1 0.000000 65.177072 19.170000 5.000000
856 0 1 0.000000 66.406828 19.880000 5.000000
857 0 1 0.000000 66.406828 21.300000 5.000000
858 0 1 0.000000 67.636584 22.010000 5.000000
859 0 1 0.000000 67.636584 23.430000 5.000000
860 0 1 0.000000 68.866340 24.140000 5.000000
861 0 1 0.000000 68.866340 25.560000 5.000000
862 0 1 0.000000 70.096096 26.270000 5.000000
863 0 1 0.000000 70.096096 27.690000 5.000000
864 0 1 0.000000 71.325852 28.400000 5.000000
865 0 1 0.000000 71.325852 29.820000 5.000000
866 0 1 0.000000 72.555608 30.530000 5.000000
867 0 2 0.150000 72.555608 31.950000 5.000000
868 0 1 0.000000 73.785364 32.660000 5.000000
869 0 1 0.000000 73.785364 34.080000 5.000000
870 0 1 0.000000 75.015120 34.790000 5.000000
871 0 1 0.000000 75.015120 36.210000 5.000000
872 0 2 0.150000 76.244877 36.920000 5.000000
873 0 1 0.000000 76.244877 38.340000 5.000000
874 0 1 0.000000 77.474633 39.050000 5.000000
875 0 1 0.000000 56.568779 0.000000 5.000000
876 0 1 0.000000 57.798535 0.710000 5.000000
877 0 1 0.000000 57.798535 2.130000 5.000000
878 0 1 0.000000 59.028292 2.840000 5.000000
879 0 1 0.000000 59.028292 4.260000 5.000000
880 0 2 0.150000 60.258048 4.970000 5.000000
881 0 1 0.000000 60.258048 6.390000 5.000000
882 0 1 0.000000 61.487804 7.100000 5.000000
883 0 1 0.000000 61.487804 8.520000 5.000000
884 0 1 0.000000 62.717560 9.230000 5.000000
885 0 1 0.000000 62.717560 10.650000 5.000000
886 0 1 0.000000 63.947316 11.360000 5.000000
887 0 1 0.000000 63.947316 12.780000 5.000000
888 0 1 0.000000 65.177072 13.490000 5.000000
889 0 1 0.000000 65.177072 14.910000 5.000000
890 0 1 0.000000 66.406828 15.620000 5.000000
891 0 1 0.000000 66.406828 17.040000 5.000000
892 0 1 0.000000 67.636584 17.750000 5.000000
893 0 1 0.000000 67.636584 19.170000 5.000000
894 0 1 0.000000 68.866340 19.880000 5.000000
895 0 1 0.000000 68.866340 21.300000 5.000000
896 0 1 0.000000 70.096096 22.010000 5.000000
897 0 2 0.150000 70.096096 23.430000 5.000000
898 0 1 0.000000 71.325852 24.140000 5.000000
899 0 1 0.000000 71.325852 25.560000 5.000000
900 0 1 0.000000 72.555608 26.270000 5.000000
901 0 1 0.000000 72.555608 27.690000 5.000000
902 0 2 0.150000 73.785364 28.400000 5.000000
903 0 2 0.150000 73.785364 29.820000 5.000000
904 0 1 0.000000 75.015120 30.530000 5.000000
905 0 1 0.000000 75.015120 31.950000 5.000000
906 0 1 0.000000 76.244877 32.660000 5.000000
907 0 1 0.000000 76.244877 34.080000 5.000000
908 0 1 0.000000 77.474633 34.790000 5.000000
909 0 1 0.000000 77.474633 36.210000 5.000000
910 0 2 0.150000 78.704389 36.920000 5.000000
911 0 1 0.000000 78.704389 38.340000 5.000000
912 0 1 0.000000 79.934145 39.050000 5.000000
913 0 1 0.000000 59.028292 0.000000 5.000000
914 0 2 0.150000 60.258048 0.710000 5.000000
915 0 1 0.000000 60.258048 2.130000 5.000000
916 0 1 0.000000 61.487804 2.840000 5.000000
917 0 1 0.000000 61.487804 4.260000 5.000000
918 0 1 0.000000 62.717560 4.970000 5.000000
919 0 1 0.000000 62.717560 6.390000 5.000000
920 0 1 0.000000 63.947316 7.100000 5.000000
921 0 1 0.000000 63.947316 8.520000 5.000000
922 0 2 0.150000 65.177072 9.230000 5.000000
923 0 1 0.000000 65.177072 10.650000 5.000000
924 0 1 0.000000 66.406828 11.360000 5.000000
925 0 1 0.000000 66.406828 12.780000 5.000000
926 0 1 0.000000 67.636584 13.490000 5.000000
927 0 1 0.000000 67.636584 14.910000 5.000000
928 0 2 0.150000 68.866340 15.620000 5.000000
929 0 1 0.000000 68.866340 17.040000 5.000000
930 0 1 0.000000 70.096096 17.750000 5.000000
931 0 1 0.000000 70.096096 19.170000 5.000000
932 0 2 0.150000 71.325852 19.880000 5.000000
933 0 1 0.000000 71.325852 21.300000 5.000000
934 0 1 0.000000 72.555608 22.010000 5.000000
935 0 1 0.000000 72.555608 23.430000 5.000000
936 0 1 0.000000 73.785364 24.140000 5.000000
937 0 2 0.150000 73.785364 25.560000 5.000000
938 0 2 0.150000 75.015120 26.270000 5.000000
939 0 1 0.000000 75.015120 27.690000 5.000000
940 0 1 0.000000 76.244877 28.400000 5.000000
941 0 1 0.000000 76.244877 29.820000 5.000000
942 0 1 0.000000 77.474633 30.530000 5.000000
943 0 2 0.150000 77.474633 31.950000 5.000000
944 0 1 0.000000 78.704389 32.660000 5.000000
945 0 1 0.000000 78.704389 34.080000 5.000000
946 0 1 0.000000 79.934145 34.790000 5.000000
947 0 1 0.000000 79.934145 36.210000 5.000000
948 0 1 0.000000 81.163901 36.920000 5.000000
949 0 1 0.000000 81.163901 38.340000 5.000000
950 0 1 0.000000 82.393657 39.050000 5.000000
951 0 1 0.000000 61.487804 0.000000 5.000000
952 0 1 0.000000 62.717560 0.710000 5.000000
953 0 1 0.000000 62.717560 2.130000 5.000000
954 0 1 0.000000 63.947316 2.840000 5.000000
955 0 1 0.000000 63.947316 4.260000 5.000000
956 0 1 0.000000 65.177072 4.970000 5.000000
957 0 1 0.000000 65.177072 6.390000 5.000000
958 0 1 0.000000 66.406828 7.100000 5.000000
959 0 1 0.000000 66.406828 8.520000 5.000000
960 0 1 0.000000 67.636584 9.230000 5.000000
961 0 1 0.000000 67.636584 10.650000 5.000000
962 0 1 0.000000 68.866340 11.360000 5.000000
963 0 1 0.000000 68.866340 12.780000 5.000000
964 0 1 0.000000 70.096096 13.490000 5.000000
965 0 1 0.000000 70.096096 14.910000 5.000000
966 0 1 0.000000 71.325852 15.620000 5.000000
967 0 1 0.000000 71.325852 17.040000 5.000000
968 0 2 0.150000 72.555608 17.750000 5.000000
969 0 1 0.000000 72.555608 19.170000 5.000000
970 0 1 0.000000 73.785364 19.880000 5.000000
971 0 1 0.000000 73.785364 21.300000 5.000000
972 0 1 0.000000 75.015120 22.010000 5.000000
973 0 2 0.150000 75.015120 23.430000 5.000000
974 0 1 0.000000 76.244877 24.140000 5.000000
975 0 1 0.000000 76.244877 25.560000 5.000000
976 0 1 0.000000 77.474633 26.270000 5.000000
977 0 1 0.000000 77.474633 27.690000 5.000000
978 0 2 0.150000 78.704389 28.400000 5.000000
979 0 1 0.000000 78.704389 29.820000 5.000000
980 0 1 0.000000 79.934145 30.530000 5.000000
981 0 1 0.000000 79.934145 31.950000 5.000000
982 0 1 0.000000 81.163901 32.660000 5.000000
983 0 1 0.000000 81.163901 34.080000 5.000000
984 0 1 0.000000 82.393657 34.790000 5.000000
985 0 1 0.000000 82.393657 36.210000 5.000000
986 0 1 0.000000 83.623413 36.920000 5.000000
987 0 1 0.000000 83.623413 38.340000 5.000000
988 0 1 0.000000 84.853169 39.050000 5.000000
989 0 1 0.000000 63.947316 0.000000 5.000000
990 0 2 0.150000 65.177072 0.710000 5.000000
991 0 1 0.000000 65.177072 2.130000 5.000000
992 0 1 0.000000 66.406828 2.840000 5.000000
993 0 1 0.000000 66.406828 4.260000 5.000000
994 0 1 0.000000 67.636584 4.970000 5.000000
995 0 2 0.150000 67.636584 6.390000 5.000000
996 0 2 0.150000 68.866340 7.100000 5.000000
997 0 1 0.000000 68.866340 8.520000 5.000000
998 0 1 0.000000 70.096096 9.230000 5.000000
999 0 1 0.000000 70.096096 10.650000 5.000000
1000 0 1 0.000000 71.325852 11.360000 5.000000
1001 0 1 0.000000 71.325852 12.780000 5.000000
1002 0 1 0.000000 72.555608 13.490000 5.000000
1003 0 1 0.000000 72.555608 14.910000 5.000000
1004 0 1 0.000000 73.785364 15.620000 5.000000
1005 0 1 0.000000 73.785364 17.040000 5.000000
1006 0 2 0.150000 75.015120 17.750000 5.000000
1007 0 1 0.000000 75.015120 19.170000 5.000000
1008 0 1 0.000000 76.244877 19.880000 5.000000
1009 0 1 0.000000 76.244877 21.300000 5.000000
1010 0 1 0.000000 77.474633 22.010000 5.000000
1011 0 1 0.000000 77.474633 23.430000 5.000000
1012 0 2 0.150000 78.704389 24.140000 5.000000
1013 0 1 0.000000 78.704389 25.560000 5.000000
1014 0 1 0.000000 79.934145 26.270000 5.000000
1015 0 1 0.000000 79.934145 27.690000 5.000000
1016 0 1 0.000000 81.163901 28.400000 5.000000
1017 0 1 0.000000 81.163901 29.820000 5.000000
1018 0 1 0.000000 82.393657 30.530000 5.000000
1019 0 1 0.000000 82.393657 31.950000 5.000000
1020 0 1 0.000000 83.623413 32.660000 5.000000
1021 0 1 0.000000 83.623413 34.080000 5.000000
1022 0 1 0.000000 84.853169 34.790000 5.000000
1023 0 1 0.000000 84.853169 36.210000 5.000000
1024 0 2 0.150000 86.082925 36.920000 5.000000
1025 0 1 0.000000 86.082925 38.340000 5.000000
1026 0 1 0.000000 87.312681 39.050000 5.000000
1027 0 1 0.000000 66.406828 0.000000 5.000000
1028 0 1 0.000000 67.636584 0.710000 5.000000
1029 0 1 0.000000 67.636584 2.130000 5.000000
1030 0 1 0.000000 68.866340 2.840000 5.000000
1031 0 1 0.000000 68.866340 4.260000 5.000000
1032 0 1 0.000000 70.096096 4.970000 5.000000
1033 0 1 0.000000 70.096096 6.390000 5.000000
1034 0 1 0.000000 71.325852 7.100000 5.000000
1035 0 1 0.000000 71.325852 8.520000 5.000000
1036 0 1 0.000000 72.555608 9.230000 5.000000
1037 0 1 0.000000 72.555608 10.650000 5.000000
1038 0 1 0.000000 73.785364 11.360000 5.000000
1039 0 1 0.000000 73.785364 12.780000 5.000000
1040 0 1 0.000000 75.015120 13.490000 5.000000
1041 0 1 0.000000 75.015120 14.910000 5.000000
1042 0 1 0.000000 76.244877 15.620000 5.000000
1043 0 1 0.000000 76.244877 17.040000 5.000000
1044 0 1 0.000000 77.474633 17.750000 5.000000
1045 0 1 0.000000 77.474633 19.170000 5.000000
1046 0 1 0.000000 78.704389 19.880000 5.000000
1047 0 1 0.000000 78.704389 21.300000 5.000000
1048 0 2 0.150000 79.934145 22.010000 5.000000
1049 0 1 0.000000 79.934145 23.430000 5.000000
1050 0 1 0.000000 81.163901 24.140000 5.000000
1051 0 1 0.000000 81.163901 25.560000 5.000000
1052 0 1 0.000000 82.393657 26.270000 5.000000
1053 0 1 0.000000 82.393657 27.690000 5.000000
1054 0 1 0.000000 83.623413 28.400000 5.000000
1055 0 1 0.000000 83.623413 29.820000 5.000000
1056 0 1 0.000000 84.853169 30.530000 5.000000
1057 0 1 0.000000 84.853169 31.950000 5.000000
1058 0 1 0.000000 86.082925 32.660000 5.000000
1059 0 1 0.000000 86.082925 34.080000 5.000000
1060 0 1 0.000000 87.312681 34.790000 5.000000
1061 0 1 0.000000 87.312681 36.210000 5.000000
1062 0 1 0.000000 88.542437 36.920000 5.000000
1063 0 1 0.000000 88.542437 38.340000 5.000000
1064 0 1 0.000000 89.772193 39.050000 5.000000
1065 0 1 0.000000 68.866340 0.000000 5.000000
1066 0 1 0.000000 70.096096 0.710000 5.000000
1067 0 1 0.000000 70.096096 2.130000 5.000000
1068 0 1 0.000000 71.325852 2.840000 5.000000
1069 0 1 0.000000 71.325852 4.260000 5.000000
1070 0 1 0.000000 72.555608 4.970000 5.000000
1071 0 1 0.000000 72.555608 6.390000 5.000000
1072 0 1 0.000000 73.785364 7.100000 5.000000
1073 0 1 0.000000 73.785364 8.520000 5.000000
1074 0 1 0.000000 75.015120 9.230000 5.000000
1075 0 1 0.000000 75.015120 10.650000 5.000000
1076 0 1 0.000000 76.244877 11.360000 5.000000
1077 0 1 0.000000 76.244877 12.780000 5.000000
1078 0 1 0.000000 77.474633 13.490000 5.000000
1079 0 1 0.000000 77.474633 14.910000 5.000000
1080 0 1 0.000000 78.704389 15.620000 5.000000
1081 0 1 0.000000 78.704389 17.040000 5.000000
1082 0 1 0.000000 79.934145 17.750000 5.000000
1083 0 1 0.000000 79.934145 19.170000 5.000000
1084 0 1 0.000000 81.163901 19.880000 5.000000
1085 0 1 0.000000 81.163901 21.300000 5.000000
1086 0 2 0.150000 82.393657 22.010000 5.000000
1087 0 1 0.000000 82.393657 23.430000 5.000000
1088 0 1 0.000000 83.623413 24.140000 5.000000
1089 0 2 0.150000 83.623413 25.560000 5.000000
1090 0 1 0.000000 84.853169 26.270000 5.000000
1091 0 1 0.000000 84.853169 27.690000 5.000000
1092 0 1 0.000000 86.082925 28.400000 5.000000
1093 0 1 0.000000 86.082925 29.820000 5.000000
1094 0 1 0.000000 87.312681 30.530000 5.000000
1095 0 1 0.000000 87.312681 31.950000 5.000000
1096 0 2 0.150000 88.542437 32.660000 5.000000
1097 0 1 0.000000 88.542437 34.080000 5.000000
1098 0 1 0.000000 89.772193 34.790000 5.000000
1099 0 1 0.000000 89.772193 36.210000 5.000000
1100 0 1 0.000000 91.001949 36.920000 5.000000
1101 0 2 0.150000 91.001949 38.340000 5.000000
1102 0 1 0.000000 92.231706 39.050000 5.000000
1103 0 2 0.150000 71.325852 0.000000 5.000000
1104 0 2 0.150000 72.555608 0.710000 5.000000
1105 0 1 0.000000 72.555608 2.130000 5.000000
1106 0 1 0.000000 73.785364 2.840000 5.000000
1107 0 2 0.150000 73.785364 4.260000 5.000000
1108 0 1 0.000000 75.015120 4.970000 5.000000
1109 0 1 0.000000 75.015120 6.390000 5.000000
1110 0 1 0.000000 76.244877 7.100000 5.000000
1111 0 2 0.150000 76.244877 8.520000 5.000000
1112 0 1 0.000000 77.474633 9.230000 5.000000
1113 0 1 0.000000 77.474633 10.650000 5.000000
1114 0 1 0.000000 78.704389 11.360000 5.000000
1115 0 1 0.000000 78.704389 12.780000 5.000000
1116 0 1 0.000000 79.934145 13.490000 5.000000
1117 0 1 0.000000 79.934145 14.910000 5.000000
1118 0 1 0.000000 81.163901 15.620000 5.000000
1119 0 1 0.000000 81.163901 17.040000 5.000000
1120 0 1 0.000000 82.393657 17.750000 5.000000
1121 0 1 0.000000 82.393657 19.170000 5.000000
1122 0 1 0.000000 83.623413 19.880000 5.000000
1123 0 1 0.000000 83.623413 21.300000 5.000000
1124 0 2 0.150000 84.853169 22.010000 5.000000
1125 0 1 0.000000 84.853169 23.430000 5.000000
1126 0 1 0.000000 86.082925 24.140000 5.000000
1127 0 1 0.000000 86.082925 25.560000 5.000000
1128 0 1 0.000000 87.312681 26.270000 5.000000
1129 0 1 0.000000 87.312681 27.690000 5.000000
1130 0 1 0.000000 88.542437 28.400000 5.000000
1131 0 1 0.000000 88.542437 29.820000 5.000000
1132 0 1 0.000000 89.772193 30.530000 5.000000
1133 0 1 0.000000 89.772193 31.950000 5.000000
1134 0 1 0.000000 91.001949 32.660000 5.000000
1135 0 1 0.000000 91.001949 34.080000 5.000000
1136 0 1 0.000000 92.231706 34.790000 5.000000
1137 0 1 0.000000 92.231706 36.210000 5.000000
1138 0 1 0.000000 93.461462 36.920000 5.000000
1139 0 1 0.000000 93.461462 38.340000 5.000000
1140 0 1 0.000000 94.691218 39.050000 5.000000
1141 0 1 0.000000 73.785364 0.000000 5.000000
1142 0 1 0.000000 75.015120 0.710000 5.000000
1143 0 1 0.000000 75.015120 2.130000 5.000000
1144 0 1 0.000000 76.244877 2.840000 5.000000
1145 0 2 0.150000 76.244877 4.260000 5.000000
1146 0 1 0.000000 77.474633 4.970000 5.000000
1147 0 1 0.000000 77.474633 6.390000 5.000000
1148 0 1 0.000000 78.704389 7.100000 5.000000
1149 0 1 0.000000 78.704389 8.520000 5.000000
1150 0 1 0.000000 79.934145 9.230000 5.000000
1151 0 1 0.000000 79.934145 10.650000 5.000000
1152 0 1 0.000000 81.163901 11.360000 5.000000
1153 0 1 0.000000 81.163901 12.780000 5.000000
1154 0 1 0.000000 82.393657 13.490000 5.000000
1155 0 1 0.000000 82.393657 14.910000 5.000000
1156 0 1 0.000000 83.623413 15.620000 5.000000
1157 0 1 0.000000 83.623413 17.040000 5.000000
1158 0 1 0.000000 84.853169 17.750000 5.000000
1159 0 1 0.000000 84.853169 19.170000 5.000000
1160 0 1 0.000000 86.082925 19.880000 5.000000
1161 0 1 0.000000 86.082925 21.300000 5.000000
1162 0 1 0.000000 87.312681 22.010000 5.000000
1163 0 1 0.000000 87.312681 23.430000 5.000000
1164 0 1 0.000000 88.542437 24.140000 5.000000
1165 0 2 0.150000 88.542437 25.560000 5.000000
1166 0 1 0.000000 89.772193 26.270000 5.000000
1167 0 1 0.000000 89.772193 27.690000 5.000000
1168 0 1 0.000000 91.001949 28.400000 5.000000
1169 0 1 0.000000 91.001949 29.820000 5.000000
1170 0 1 0.000000 92.231706 30.530000 5.000000
1171 0 2 0.150000 92.231706 31.950000 5.000000
1172 0 1 0.000000 93.461462 32.660000 5.000000
1173 0 1 0.000000 93.461462 34.080000 5.000000
1174 0 1 0.000000 94.691218 34.790000 5.000000
1175 0 1 0.000000 94.691218 36.210000 5.000000
1176 0 1 0.000000 95.920974 36.920000 5.000000
1177 0 1 0.000000 95.920974 38.340000 5.000000
1178 0 1 0.000000 97.150730 39.050000 5.000000
1179 0 1 0.000000 76.244877 0.000000 5.000000
1180 0 1 0.000000 77.474633 0.710000 5.000000
1181 0 1 0.000000 77.474633 2.130000 5.000000
1182 0 1 0.000000 78.704389 2.840000 5.000000
1183 0 2 0.150000 78.704389 4.260000 5.000000
1184 0 1 0.000000 79.934145 4.970000 5.000000
1185 0 1 0.000000 79.934145 6.390000 5.000000
1186 0 1 0.000000 81.163901 7.100000 5.000000
1187 0 1 0.000000 81.163901 8.520000 5.000000
1188 0 1 0.000000 82.393657 9.230000 5.000000
1189 0 1 0.000000 82.393657 10.650000 5.000000
1190 0 1 0.000000 83.623413 11.360000 5.000000
1191 0 1 0.000000 83.623413 12.780000 5.000000
1192 0 1 0.000000 84.853169 13.490000 5.000000
1193 0 2 0.150000 84.853169 14.910000 5.000000
1194 0 1 0.000000 86.082925 15.620000 5.000000
1195 0 1 0.000000 86.082925 17.040000 5.000000
1196 0 1 0.000000 87.312681 17.750000 5.000000
1197 0 2 0.150000 87.312681 19.170000 5.000000
1198 0 1 0.000000 88.542437 19.880000 5.000000
1199 0 1 0.000000 88.542437 21.300000 5.000000
1200 0 1 0.000000 89.772193 22.010000 5.000000
1201 0 2 0.150000 89.772193 23.430000 5.000000
1202 0 1 0.000000 91.001949 24.140000 5.000000
1203 0 1 0.000000 91.001949 25.560000 5.000000
1204 0 1 0.000000 92.231706 26.270000 5.000000
1205 0 1 0.000000 92.231706 27.690000 5.000000
1206 0 1 0.000000 93.461462 28.400000 5.000000
1207 0 1 0.000000 93.461462 29.820000 5.000000
1208 0 2 0.150000 94.691218 30.530000 5.000000
1209 0 1 0.000000 94.691218 31.950000 5.000000
1210 0 1 0.000000 95.920974 32.660000 5.000000
1211 0 1 0.000000 95.920974 34.080000 5.000000
1212 0 1 0.000000 97.150730 34.790000 5.000000
1213 0 1 0.000000 97.150730 36.210000 5.000000
1214 0 1 0.000000 98.380486 36.920000 5.000000
1215 0 1 0.000000 98.380486 38.340000 5.000000
1216 0 1 0.000000 99.610242 39.050000 5.000000
1217 0 1 0.000000 78.704389 0.000000 5.000000
1218 0 1 0.000000 79.934145 0.710000 5.000000
1219 0 1 0.000000 79.934145 2.130000 5.000000
1220 0 1 0.000000 81.163901 2.840000 5.000000
1221 0 1 0.000000 81.163901 4.260000 5.000000
1222 0 1 0.000000 82.393657 4.970000 5.000000
1223 0 1 0.000000 82.393657 6.390000 5.000000
1224 0 1 0.000000 83.623413 7.100000 5.000000
1225 0 1 0.000000 83.623413 8.520000 5.000000
1226 0 1 0.000000 84.853169 9.230000 5.000000
1227 0 1 0.000000 84.853169 10.650000 5.000000
1228 0 1 0.000000 86.082925 11.360000 5.000000
1229 0 1 0.000000 86.082925 12.780000 5.000000
1230 0 1 0.000000 87.312681 13.490000 5.000000
1231 0 1 0.000000 87.312681 14.910000 5.000000
1232 0 1 0.000000 88.542437 15.620000 5.000000
1233 0 1 0.000000 88.542437 17.040000 5.000000
1234 0 1 0.000000 89.772193 17.750000 5.000000
1235 0 1 0.000000 89.772193 19.170000 5.000000
1236 0 1 0.000000 91.001949 19.880000 5.000000
1237 0 2 0.150000 91.001949 21.300000 5.000000
1238 0 1 0.000000 92.231706 22.010000 5.000000
1239 0 1 0.000000 92.231706 23.430000 5.000000
1240 0 1 0.000000 93.461462 24.140000 5.000000
1241 0 1 0.000000 93.461462 25.560000 5.000000
1242 0 1 0.000000 94.691218 26.270000 5.000000
1243 0 1 0.000000 94.691218 27.690000 5.000000
1244 0 2 0.150000 95.920974 28.400000 5.000000
1245 0 1 0.000000 95.920974 29.820000 5.000000
1246 0 1 0.000000 97.150730 30.530000 5.000000
1247 0 2 0.150000 97.150730 31.950000 5.000000
1248 0 1 0.000000 98.380486 32.660000 5.000000
1249 0 1 0.000000 98.380486 34.080000 5.000000
1250 0 1 0.000000 99.610242 34.790000 5.000000
1251 0 1 0.000000 99.610242 36.210000 5.000000
1252 0 1 0.000000 100.839998 36.920000 5.000000
1253 0 1 0.000000 100.839998 38.340000 5.000000
1254 0 1 0.000000 102.069754 39.050000 5.000000
1255 0 2 0.150000 81.163901 0.000000 5.000000
1256 0 1 0.000000 82.393657 0.710000 5.000000
1257 0 1 0.000000 82.393657 2.130000 5.000000
1258 0 2 0.150000 83.623413 2.840000 5.000000
1259 0 1 0.000000 83.623413 4.260000 5.000000
1260 0 2 0.150000 84.853169 4.970000 5.000000
1261 0 1 0.000000 84.853169 6.390000 5.000000
1262 0 1 0.000000 86.082925 7.100000 5.000000
1263 0 1 0.000000 86.082925 8.520000 5.000000
1264 0 1 0.000000 87.312681 9.230000 5.000000
1265 0 1 0.000000 87.312681 10.650000 5.000000
1266 0 1 0.000000 88.542437 11.360000 5.000000
1267 0 1 0.000000 88.542437 12.780000 5.000000
1268 0 1 0.000000 89.772193 13.490000 5.000000
1269 0 1 0.000000 89.772193 14.910000 5.000000
1270 0 1 0.000000 91.001949 15.620000 5.000000
1271 0 1 0.000000 91.001949 17.040000 5.000000
1272 0 2 0.150000 92.231706 17.750000 5.000000
1273 0 1 0.000000 92.231706 19.170000 5.000000
1274 0 1 0.000000 93.461462 19.880000 5.000000
1275 0 2 0.150000 93.461462 21.300000 5.000000
1276 0 2 0.150000 94.691218 22.010000 5.000000
1277 0 1 0.000000 94.691218 23.430000 5.000000
1278 0 2 0.150000 95.920974 24.140000 5.000000
1279 0 1 0.000000 95.920974 25.560000 5.000000
1280 0 1 0.000000 97.150730 26.270000 5.000000
1281 0 2 0.150000 97.150730 27.690000 5.000000
1282 0 1 0.000000 98.380486 28.400000 5.000000
1283 0 1 0.000000 98.380486 29.820000 5.000000
1284 0 1 0.000000 99.610242 30.530000 5.000000
1285 0 1 0.000000 99.610242 31.950000 5.000000
1286 0 1 0.000000 100.839998 32.660000 5.000000
1287 0 1 0.000000 100.839998 34.080000 5.000000
1288 0 1 0.000000 102.069754 34.790000 5.000000
1289 0 1 0.000000 102.069754 36.210000 5.000000
1290 0 1 0.000000 103.299510 36.920000 5.000000
1291 0 1 0.000000 103.299510 38.340000 5.000000
1292 0 2 0.150000 104.529266 39.050000 5.000000
1293 0 1 0.000000 83.623413 0.000000 5.000000
1294 0 1 0.000000 84.853169 0.710000 5.000000
1295 0 1 0.000000 84.853169 2.130000 5.000000
1296 0 1 0.000000 86.082925 2.840000 5.000000
1297 0 1 0.000000 86.082925 4.260000 5.000000
1298 0 1 0.000000 87.312681 4.970000 5.000000
1299 0 1 0.000000 87.312681 6.390000 5.000000
1300 0 1 0.000000 88.542437 7.100000 5.000000
1301 0 1 0.000000 88.542437 8.520000 5.000000
1302 0 1 0.000000 89.772193 9.230000 5.000000
1303 0 1 0.000000 89.772193 10.650000 5.000000
1304 0 2 0.150000 91.001949 11.360000 5.000000
1305 0 1 0.000000 91.001949 12.780000 5.000000
1306 0 1 0.000000 92.231706 13.490000 5.000000
1307 0 2 0.150000 92.231706 14.910000 5.000000
1308 0 1 0.000000 93.461462 15.620000 5.000000
1309 0 1 0.000000 93.461462 17.040000 5.000000
1310 0 1 0.000000 94.691218 17.750000 5.000000
1311 0 1 0.000000 94.691218 19.170000 5.000000
1312 0 2 0.150000 95.920974 19.880000 5.000000
1313 0 1 0.000000 95.920974 21.300000 5.000000
1314 0 1 0.000000 97.150730 22.010000 5.000000
1315 0 1 0.000000 97.150730 23.430000 5.000000
1316 0 1 0.000000 98.380486 24.140000 5.000000
1317 0 1 0.000000 98.380486 25.560000 5.000000
1318 0 1 0.000000 99.610242 26.270000 5.000000
1319 0 1 0.000000 99.610242 27.690000 5.000000
1320 0 1 0.000000 100.839998 28.400000 5.000000
1321 0 1 0.000000 100.839998 29.820000 5.000000
1322 0 1 0.000000 102.069754 30.530000 5.000000
1323 0 2 0.150000 102.069754 31.950000 5.000000
1324 0 1 0.000000 103.299510 32.660000 5.000000
1325 0 1 0.000000 103.299510 34.080000 5.000000
1326 0 1 0.000000 104.529266 34.790000 5.000000
1327 0 1 0.000000 104.529266 36.210000 5.000000
1328 0 1 0.000000 105.759022 36.920000 5.000000
1329 0 2 0.150000 105.759022 38.340000 5.000000
1330 0 1 0.000000 106.988778 39.050000 5.000000
1331 0 1 0.000000 86.082925 0.000000 5.000000
1332 0 1 0.000000 87.312681 0.710000 5.000000
1333 0 1 0.000000 87.312681 2.130000 5.000000
1334 0 1 0.000000 88.542437 2.840000 5.000000
1335 0 2 0.150000 88.542437 4.260000 5.000000
1336 0 1 0.000000 89.772193 4.970000 5.000000
1337 0 1 0.000000 89.772193 6.390000 5.000000
1338 0 1 0.000000 91.001949 7.100000 5.000000
1339 0 1 0.000000 91.001949 8.520000 5.000000
1340 0 1 0.000000 92.231706 9.230000 5.000000
1341 0 2 0.150000 92.231706 10.650000 5.000000
1342 0 1 0.000000 93.461462 11.360000 5.000000
1343 0 1 0.000000 93.461462 12.780000 5.000000
1344 0 1 0.000000 94.691218 13.490000 5.000000
1345 0 1 0.000000 94.691218 14.910000 5.000000
1346 0 1 0.000000 95.920974 15.620000 5.000000
1347 0 1 0.000000 95.920974 17.040000 5.000000
1348 0 1 0.000000 97.150730 17.750000 5.000000
1349 0 1 0.000000 97.150730 19.170000 5.000000
1350 0 1 0.000000 98.380486 19.880000 5.000000
1351 0 1 0.000000 98.380486 21.300000 5.000000
1352 0 2 0.150000 99.610242 22.010000 5.000000
1353 0 1 0.000000 99.610242 23.430000 5.000000
1354 0 1 0.000000 100.839998 24.140000 5.000000
1355 0 1 0.000000 100.839998 25.560000 5.000000
1356 0 1 0.000000 102.069754 26.270000 5.000000
1357 0 1 0.000000 102.069754 27.690000 5.000000
1358 0 1 0.000000 103.299510 28.400000 5.000000
1359 0 1 0.000000 103.299510 29.820000 5.000000
1360 0 1 0.000000 104.529266 30.530000 5.000000
1361 0 1 0.000000 104.529266 31.950000 5.000000
1362 0 1 0.000000 105.759022 32.660000 5.000000
1363 0 1 0.000000 105.759022 34.080000 5.000000
1364 0 1 0.000000 106.988778 34.790000 5.000000
1365 0 1 0.000000 106.988778 36.210000 5.000000
1366 0 1 0.000000 108.218534 36.920000 5.000000
1367 0 1 0.000000 108.218534 38.340000 5.000000
1368 0 1 0.000000 109.448291 39.050000 5.000000
1369 0 1 0.000000 88.542437 0.000000 5.000000
1370 0 1 0.000000 89.772193 0.710000 5.000000
1371 0 1 0.000000 89.772193 2.130000 5.000000
1372 0 2 0.150000 91.001949 2.840000 5.000000
1373 0 1 0.000000 91.001949 4.260000 5.000000
1374 0 1 0.000000 92.231706 4.970000 5.000000
1375 0 2 0.150000 92.231706 6.390000 5.000000
1376 0 1 0.000000 93.461462 7.100000 5.000000
1377 0 2 0.150000 93.461462 8.520000 5.000000
1378 0 1 0.000000 94.691218 9.230000 5.000000
1379 0 1 0.000000 94.691218 10.650000 5.000000
1380 0 2 0.150000 95.920974 11.360000 5.000000
1381 0 1 0.000000 95.920974 12.780000 5.000000
1382 0 1 0.000000 97.150730 13.490000 5.000000
1383 0 1 0.000000 97.150730 14.910000 5.000000
1384 0 1 0.000000 98.380486 15.620000 5.000000
1385 0 1 0.000000 98.380486 17.040000 5.000000
1386 0 1 0.000000 99.610242 17.750000 5.000000
1387 0 1 0.000000 99.610242 19.170000 5.000000
1388 0 1 0.000000 100.839998 19.880000 5.000000
1389 0 1 0.000000 100.839998 21.300000 5.000000
1390 0 1 0.000000 102.069754 22.010000 5.000000
1391 0 1 0.000000 102.069754 23.430000 5.000000
1392 0 1 0.000000 103.299510 24.140000 5.000000
1393 0 1 0.000000 103.299510 25.560000 5.000000
1394 0 1 0.000000 104.529266 26.270000 5.000000
1395 0 1 0.000000 104.529266 27.690000 5.000000
1396 0 1 0.000000 105.759022 28.400000 5.000000
1397 0 1 0.000000 105.759022 29.820000 5.000000
1398 0 1 0.000000 106.988778 30.530000 5.000000
1399 0 1 0.000000 106.988778 31.950000 5.000000
1400 0 1 0.000000 108.218534 32.660000 5.000000
1401 0 1 0.000000 108.218534 34.080000 5.000000
1402 0 1 0.000000 109.448291 34.790000 5.000000
1403 0 1 0.000000 109.448291 36.210000 5.000000
1404 0 1 0.000000 110.678047 36.920000 5.000000
1405 0 1 0.000000 110.678047 38.340000 5.000000
1406 0 1 0.000000 111.907803 39.050000 5.000000
1407 0 1 0.000000 91.001949 0.000000 5.000000
1408 0 2 0.150000 92.231706 0.710000 5.000000
1409 0 1 0.000000 92.231706 2.130000 5.000000
1410 0 1 0.000000 93.461462 2.840000 5.000000
1411 0 2 0.150000 93.461462 4.260000 5.000000
1412 0 1 0.000000 94.691218 4.970000 5.000000
1413 0 1 0.000000 94.691218 6.390000 5.000000
1414 0 1 0.000000 95.920974 7.100000 5.000000
1415 0 1 0.000000 95.920974 8.520000 5.000000
1416 0 1 0.000000 97.150730 9.230000 5.000000
1417 0 1 0.000000 97.150730 10.650000 5.000000
1418 0 1 0.000000 98.380486 11.360000 5.000000
1419 0 2 0.150000 98.380486 12.780000 5.000000
1420 0 1 0.000000 99.610242 13.490000 5.000000
1421 0 1 0.000000 99.610242 14.910000 5.000000
1422 0 1 0.000000 100.839998 15.620000 5.000000
1423 0 1 0.000000 100.839998 17.040000 5.000000
1424 0 1 0.000000 102.069754 17.750000 5.000000
1425 0 1 0.000000 102.069754 19.170000 5.000000
1426 0 1 0.000000 103.299510 19.880000 5.000000
1427 0 1 0.000000 103.299510 21.300000 5.000000
1428 0 1 0.000000 104.529266 22.010000 5.000000
1429 0 1 0.000000 104.529266 23.430000 5.000000
1430 0 1 0.000000 105.759022 24.140000 5.000000
1431 0 1 0.000000 105.759022 25.560000 5.000000
1432 0 1 0.000000 106.988778 26.270000 5.000000
1433 0 1 0.000000 106.988778 27.690000 5.000000
1434 0 2 0.150000 108.218534 28.400000 5.000000
1435 0 1 0.000000 108.218534 29.820000 5.000000
1436 0 1 0.000000 109.448291 30.530000 5.000000
1437 0 1 0.000000 109.448291 31.950000 5.000000
1438 0 1 0.000000 110.678047 32.660000 5.000000
1439 0 2 0.150000 110.678047 34.080000 5.000000
1440 0 1 0.000000 111.907803 34.790000 5.000000
1441 0 1 0.000000 111.907803 36.210000 5.000000
1442 0 1 0.000000 113.137559 36.920000 5.000000
1443 0 1 0.000000 113.137559 38.340000 5.000000
1444 0 1 0.000000 114.367315 39.050000 5.000000
1445 0 1 0.000000 93.461462 0.000000 5.000000
1446 0 2 0.150000 94.691218 0.710000 5.000000
1447 0 1 0.000000 94.691218 2.130000 5.000000
1448 0 1 0.000000 95.920974 2.840000 5.000000
1449 0 1 0.000000 95.920974 4.260000 5.000000
1450 0 2 0.150000 97.150730 4.970000 5.000000
1451 0 1 0.000000 97.150730 6.390000 5.000000
1452 0 1 0.000000 98.380486 7.100000 5.000000
1453 0 1 0.000000 98.380486 8.520000 5.000000
1454 0 1 0.000000 99.610242 9.230000 5.000000
1455 0 1 0.000000 99.610242 10.650000 5.000000
1456 0 1 0.000000 100.839998 11.360000 5.000000
1457 0 1 0.000000 100.839998 12.780000 5.000000
1458 0 1 0.000000 102.069754 13.490000 5.000000
1459 0 1 0.000000 102.069754 14.910000 5.000000
1460 0 2 0.150000 103.299510 15.620000 5.000000
1461 0 1 0.000000 103.299510 17.040000 5.000000
1462 0 1 0.000000 104.529266 17.750000 5.000000
1463 0 1 0.000000 104.529266 19.170000 5.000000
1464 0 1 0.000000 105.759022 19.880000 5.000000
1465 0 1 0.000000 105.759022 21.300000 5.000000
1466 0 1 0.000000 106.988778 22.010000 5.000000
1467 0 1 0.000000 106.988778 23.430000 5.000000
1468 0 1 0.000000 108.218534 24.140000 5.000000
1469 0 2 0.150000 108.218534 25.560000 5.000000
1470 0 1 0.000000 109.448291 26.270000 5.000000
1471 0 2 0.150000 109.448291 27.690000 5.000000
1472 0 1 0.000000 110.678047 28.400000 5.000000
1473 0 2 0.150000 110.678047 29.820000 5.000000
1474 0 1 0.000000 111.907803 30.530000 5.000000
1475 0 2 0.150000 111.907803 31.950000 5.000000
1476 0 1 0.000000 113.137559 32.660000 5.000000
1477 0 1 0.000000 113.137559 34.080000 5.000000
1478 0 1 0.000000 114.367315 34.790000 5.000000
1479 0 1 0.000000 114.367315 36.210000 5.000000
1480 0 1 0.000000 115.597071 36.920000 5.000000
1481 0 1 0.000000 115.597071 38.340000 5.000000
1482 0 1 0.000000 116.826827 39.050000 5.000000
1483 0 1 0.000000 95.920974 0.000000 5.000000
1484 0 1 0.000000 97.150730 0.710000 5.000000
1485 0 1 0.000000 97.150730 2.130000 5.000000
1486 0 1 0.000000 98.380486 2.840000 5.000000
1487 0 1 0.000000 98.380486 4.260000 5.000000
1488 0 1 0.000000 99.610242 4.970000 5.000000
1489 0 1 0.000000 99.610242 6.390000 5.000000
1490 0 1 0.000000 100.839998 7.100000 5.000000
1491 0 1 0.000000 100.839998 8.520000 5.000000
1492 0 1 0.000000 102.069754 9.230000 5.000000
1493 0 1 0.000000 102.069754 10.650000 5.000000
1494 0 1 0.000000 103.299510 11.360000 5.000000
1495 0 1 0.000000 103.299510 12.780000 5.000000
1496 0 1 0.000000 104.529266 13.490000 5.000000
1497 0 1 0.000000 104.529266 14.910000 5.000000
1498 0 1 0.000000 105.759022 15.620000 5.000000
1499 0 1 0.000000 105.759022 17.040000 5.000000
1500 0 1 0.000000 106.988778 17.750000 5.000000
1501 0 1 0.000000 106.988778 19.170000 5.000000
1502 0 1 0.000000 108.218534 19.880000 5.000000
1503 0 1 0.000000 108.218534 21.300000 5.000000
1504 0 1 0.000000 109.448291 22.010000 5.000000
1505 0 1 0.000000 109.448291 23.430000 5.000000
1506 0 1 0.000000 110.678047 24.140000 5.000000
1507 0 1 0.000000 110.678047 25.560000 5.000000
1508 0 1 0.000000 111.907803 26.270000 5.000000
1509 0 1 0.000000 111.907803 27.690000 5.000000
1510 0 1 0.000000 113.137559 28.400000 5.000000
1511 0 1 0.000000 113.137559 29.820000 5.000000
1512 0 1 0.000000 114.367315 30.530000 5.000000
1513 0 1 0.000000 114.367315 31.950000 5.000000
1514 0 1 0.000000 115.597071 32.660000 5.000000
1515 0 1 0.000000 115.597071 34.080000 5.000000
1516 0 1 0.000000 116.826827 34.790000 5.000000
1517 0 1 0.000000 116.826827 36.210000 5.000000
1518 0 1 0.000000 118.056583 36.920000 5.000000
1519 0 1 0.000000 118.056583 38.340000 5.000000
1520 0 1 0.000000 119.286339 39.050000 5.000000
1521 0 1 0.000000 98.380486 0.000000 5.000000
1522 0 1 0.000000 99.610242 0.710000 5.000000
1523 0 1 0.000000 99.610242 2.130000 5.000000
1524 0 1 0.000000 100.839998 2.840000 5.000000
1525 0 1 0.000000 100.839998 4.260000 5.000000
1526 0 1 0.000000 102.069754 4.970000 5.000000
1527 0 2 0.150000 102.069754 6.390000 5.000000
1528 0 1 0.000000 103.299510 7.100000 5.000000
1529 0 1 0.000000 103.299510 8.520000 5.000000
1530 0 1 0.000000 104.529266 9.230000 5.000000
1531 0 1 0.000000 104.529266 10.650000 5.000000
1532 0 1 0.000000 105.759022 11.360000 5.000000
1533 0 1 0.000000 105.759022 12.780000 5.000000
1534 0 1 0.000000 106.988778 13.490000 5.000000
1535 0 1 0.000000 106.988778 14.910000 5.000000
1536 0 1 0.000000 108.218534 15.620000 5.000000
1537 0 1 0.000000 108.218534 17.040000 5.000000
1538 0 1 0.000000 109.448291 17.750000 5.000000
1539 0 1 0.000000 109.448291 19.170000 5.000000
1540 0 1 0.000000 110.678047 19.880000 5.000000
1541 0 1 0.000000 110.678047 21.300000 5.000000
1542 0 1 0.000000 111.907803 22.010000 5.000000
1543 0 1 0.000000 111.907803 23.430000 5.000000
1544 0 1 0.000000 113.137559 24.140000 5.000000
1545 0 1 0.000000 113.137559 25.560000 5.000000
1546 0 2 0.150000 114.367315 26.270000 5.000000
1547 0 1 0.000000 114.367315 27.690000 5.000000
1548 0 1 0.000000 115.597071 28.400000 5.000000
1549 0 1 0.000000 115.597071 29.820000 5.000000
1550 0 1 0.000000 116.826827 30.530000 5.000000
1551 0 1 0.000000 116.826827 31.950000 5.000000
1552 0 1 0.000000 118.056583 32.660000 5.000000
1553 0 1 0.000000 118.056583 34.080000 5.000000
1554 0 1 0.000000 119.286339 34.790000 5.000000
1555 0 1 0.000000 119.286339 36.210000 5.000000
1556 0 1 0.000000 120.516095 36.920000 5.000000
1557 0 1 0.000000 120.516095 38.340000 5.000000
1558 0 1 0.000000 121.745851 39.050000 5.000000
1559 0 1 0.000000 100.839998 0.000000 5.000000
1560 0 2 0.150000 102.069754 0.710000 5.000000
1561 0 1 0.000000 102.069754 2.130000 5.000000
1562 0 1 0.000000 103.299510 2.840000 5.000000
1563 0 1 0.000000 103.299510 4.260000 5.000000
1564 0 1 0.000000 104.529266 4.970000 5.000000
1565 0 1 0.000000 104.529266 6.390000 5.000000
1566 0 1 0.000000 105.759022 7.100000 5.000000
1567 0 1 0.000000 105.759022 8.520000 5.000000
1568 0 1 0.000000 106.988778 9.230000 5.000000
1569 0 1 0.000000 106.988778 10.650000 5.000000
1570 0 1 0.000000 108.218534 11.360000 5.000000
1571 0 1 0.000000 108.218534 12.780000 5.000000
1572 0 1 0.000000 109.448291 13.490000 5.000000
1573 0 2 0.150000 109.448291 14.910000 5.000000
1574 0 1 0.000000 110.678047 15.620000 5.000000
1575 0 1 0.000000 110.678047 17.040000 5.000000
1576 0 1 0.000000 111.907803 17.750000 5.000000
1577 0 1 0.000000 111.907803 19.170000 5.000000
1578 0 1 0.000000 113.137559 19.880000 5.000000
1579 0 1 0.000000 113.137559 21.300000 5.000000
1580 0 1 0.000000 114.367315 22.010000 5.000000
1581 0 1 0.000000 114.367315 23.430000 5.000000
1582 0 1 0.000000 115.597071 24.140000 5.000000
1583 0 1 0.000000 115.597071 25.560000 5.000000
1584 0 2 0.150000 116.826827 26.270000 5.000000
1585 0 1 0.000000 116.826827 27.690000 5.000000
1586 0 1 0.000000 118.056583 28.400000 5.000000
1587 0 1 0.000000 118.056583 29.820000 5.000000
1588 0 1 0.000000 119.286339 30.530000 5.000000
1589 0 1 0.000000 119.286339 31.950000 5.000000
1590 0 1 0.000000 120.516095 32.660000 5.000000
1591 0 1 0.000000 120.516095 34.080000 5.000000
1592 0 1 0.000000 121.745851 34.790000 5.000000
1593 0 1 0.000000 121.745851 36.210000 5.000000
1594 0 1 0.000000 122.975607 36.920000 5.000000
1595 0 1 0.000000 122.975607 38.340000 5.000000
1596 0 1 0.000000 124.205363 39.050000 5.000000
1597 0 1 0.000000 103.299510 0.000000 5.000000
1598 0 1 0.000000 104.529266 0.710000 5.000000
1599 0 1 0.000000 104.529266 2.130000 5.000000
1600 0 1 0.000000 105.759022 2.840000 5.000000
1601 0 1 0.000000 105.759022 4.260000 5.000000
1602 0 1 0.000000 106.988778 4.970000 5.000000
1603 0 1 0.000000 106.988778 6.390000 5.000000
1604 0 1 0.000000 108.218534 7.100000 5.000000
1605 0 1 0.000000 108.218534 8.520000 5.000000
1606 0 1 0.000000 109.448291 9.230000 5.000000
1607 0 1 0.000000 109.448291 10.650000 5.000000
1608 0 1 0.000000 110.678047 11.360000 5.000000
1609 0 2 0.150000 110.678047 12.780000 5.000000
1610 0 1 0.000000 111.907803 13.490000 5.000000
1611 0 1 0.000000 111.907803 14.910000 5.000000
1612 0 1 0.000000 113.137559 15.620000 5.000000
1613 0 1 0.000000 113.137559 17.040000 5.000000
1614 0 2 0.150000 114.367315 17.750000 5.000000
1615 0 1 0.000000 114.367315 19.170000 5.000000
1616 0 1 0.000000 115.597071 19.880000 5.000000
1617 0 1 0.000000 115.597071 21.300000 5.000000
1618 0 1 0.000000 116.826827 22.010000 5.000000
1619 0 2 0.150000 116.826827 23.430000 5.000000
1620 0 1 0.000000 118.056583 24.140000 5.000000
1621 0 1 0.000000 118.056583 25.560000 5.000000
1622 0 1 0.000000 119.286339 26.270000 5.000000
1623 0 1 0.000000 119.286339 27.690000 5.000000
1624 0 1 0.000000 120.516095 28.400000 5.000000
1625 0 1 0.000000 120.516095 29.820000 5.000000
1626 0 1 0.000000 121.745851 30.530000 5.000000
1627 0 1 0.000000 121.745851 31.950000 5.000000
1628 0 1 0.000000 122.975607 32.660000 5.000000
1629 0 1 0.000000 122.975607 34.080000 5.000000
1630 0 1 0.000000 124.205363 34.790000 5.000000
1631 0 1 0.000000 124.205363 36.210000 5.000000
1632 0 2 0.150000 125.435119 36.920000 5.000000
1633 0 1 0.000000 125.435119 38.340000 5.000000
1634 0 1 0.000000 126.664876 39.050000 5.000000
1635 0 1 0.000000 105.759022 0.000000 5.000000
1636 0 1 0.000000 106.988778 0.710000 5.000000
1637 0 1 0.000000 106.988778 2.130000 5.000000
1638 0 1 0.000000 108.218534 2.840000 5.000000
1639 0 1 0.000000 108.218534 4.260000 5.000000
1640 0 1 0.000000 109.448291 4.970000 5.000000
1641 0 1 0.000000 109.448291 6.390000 5.000000
1642 0 1 0.000000 110.678047 7.100000 5.000000
1643 0 1 0.000000 110.678047 8.520000 5.000000
1644 0 1 0.000000 111.907803 9.230000 5.000000
1645 0 1 0.000000 111.907803 10.650000 5.000000
1646 0 1 0.000000 113.137559 11.360000 5.000000
1647 0 1 0.000000 113.137559 12.780000 5.000000
1648 0 1 0.000000 114.367315 13.490000 5.000000
1649 0 1 0.000000 114.367315 14.910000 5.000000
1650 0 1 0.000000 115.597071 15.620000 5.000000
1651 0 2 0.150000 115.597071 17.040000 5.000000
1652 0 1 0.000000 116.826827 17.750000 5.000000
1653 0 1 0.000000 116.826827 19.170000 5.000000
1654 0 1 0.000000 118.056583 19.880000 5.000000
1655 0 1 0.000000 118.056583 21.300000 5.000000
1656 0 1 0.000000 119.286339 22.010000 5.000000
1657 0 1 0.000000 119.286339 23.430000 5.000000
1658 0 1 0.000000 120.516095 24.140000 5.000000
1659 0 1 0.000000 120.516095 25.560000 5.000000
1660 0 1 0.000000 121.745851 26.270000 5.000000
1661 0 1 0.000000 121.745851 27.690000 5.000000
1662 0 1 0.000000 122.975607 28.400000 5.000000
1663 0 1 0.000000 122.975607 29.820000 5.000000
1664 0 1 0.000000 124.205363 30.530000 5.000000
1665 0 1 0.000000 124.205363 31.950000 5.000000
1666 0 1 0.000000 125.435119 32.660000 5.000000
1667 0 1 0.000000 125.435119 34.080000 5.000000
1668 0 2 0.150000 126.664876 34.790000 5.000000
1669 0 1 0.000000 126.664876 36.210000 5.000000
1670 0 1 0.000000 127.894632 36.920000 5.000000
1671 0 1 0.000000 127.894632 38.340000 5.000000
1672 0 1 0.000000 129.124388 39.050000 5.000000
1673 0 1 0.000000 108.218534 0.000000 5.000000
1674 0 1 0.000000 109.448291 0.710000 5.000000
1675 0 1 0.000000 109.448291 2.130000 5.000000
1676 0 1 0.000000 110.678047 2.840000 5.000000
1677 0 1 0.000000 110.678047 4.260000 5.000000
1678 0 1 0.000000 111.907803 4.970000 5.000000
1679 0 1 0.000000 111.907803 6.390000 5.000000
1680 0 1 0.000000 113.137559 7.100000 5.000000
1681 0 1 0.000000 113.137559 8.520000 5.000000
1682 0 1 0.000000 114.367315 9.230000 5.000000
1683 0 1 0.000000 114.367315 10.650000 5.000000
1684 0 1 0.000000 115.597071 11.360000 5.000000
1685 0 1 0.000000 115.597071 12.780000 5.000000
1686 0 1 0.000000 116.826827 13.490000 5.000000
1687 0 1 0.000000 116.826827 14.910000 5.000000
1688 0 1 0.000000 118.056583 15.620000 5.000000
1689 0 1 0.000000 118.056583 17.040000 5.000000
1690 0 2 0.150000 119.286339 17.750000 5.000000
1691 0 1 0.000000 119.286339 19.170000 5.000000
1692 0 1 0.000000 120.516095 19.880000 5.000000
1693 0 1 0.000000 120.516095 21.300000 5.000000
1694 0 1 0.000000 121.745851 22.010000 5.000000
1695 0 1 0.000000 121.745851 23.430000 5.000000
1696 0 1 0.000000 122.975607 24.140000 5.000000
1697 0 1 0.000000 122.975607 25.560000 5.000000
1698 0 1 0.000000 124.205363 26.270000 5.000000
1699 0 1 0.000000 124.205363 27.690000 5.000000
1700 0 1 0.000000 125.435119 28.400000 5.000000
1701 0 2 0.150000 125.435119 29.820000 5.000000
1702 0 1 0.000000 126.664876 30.530000 5.000000
1703 0 1 0.000000 126.664876 31.950000 5.000000
1704 0 1 0.000000 127.894632 32.660000 5.000000
1705 0 2 0.150000 127.894632 34.080000 5.000000
1706 0 1 0.000000 129.124388 34.790000 5.000000
1707 0 1 0.000000 129.124388 36.210000 5.000000
1708 0 1 0.000000 130.354144 36.920000 5.000000
1709 0 1 0.000000 130.354144 38.340000 5.000000
1710 0 1 0.000000 131.583900 39.050000 5.000000
1711 0 1 0.000000 110.678047 0.000000 5.000000
1712 0 1 0.000000 111.907803 0.710000 5.000000
1713 0 1 0.000000 111.907803 2.130000 5.000000
1714 0 1 0.000000 113.137559 2.840000 5.000000
1715 0 1 0.000000 113.137559 4.260000 5.000000
1716 0 1 0.000000 114.367315 4.970000 5.000000
1717 0 1 0.000000 114.367315 6.390000 5.000000
1718 0 1 0.000000 115.597071 7.100000 5.000000
1719 0 1 0.000000 115.597071 8.520000 5.000000
1720 0 1 0.000000 116.826827 9.230000 5.000000
1721 0 1 0.000000 116.826827 10.650000 5.000000
1722 0 1 0.000000 118.056583 11.360000 5.000000
1723 0 2 0.150000 118.056583 12.780000 5.000000
1724 0 1 0.000000 119.286339 13.490000 5.000000
1725 0 1 0.000000 119.286339 14.910000 5.000000
1726 0 2 0.150000 120.516095 15.620000 5.000000
1727 0 2 0.150000 120.516095 17.040000 5.000000
1728 0 1 0.000000 121.745851 17.750000 5.000000
1729 0 1 0.000000 121.745851 19.170000 5.000000
1730 0 1 0.000000 122.975607 19.880000 5.000000
1731 0 1 0.000000 122.975607 21.300000 5.000000
1732 0 1 0.000000 124.205363 22.010000 5.000000
1733 0 1 0.000000 124.205363 23.430000 5.000000
1734 0 1 0.000000 125.435119 24.140000 5.000000
1735 0 1 0.000000 125.435119 25.560000 5.000000
1736 0 2 0.150000 126.664876 26.270000 5.000000
1737 0 1 0.000000 126.664876 27.690000 5.000000
1738 0 1 0.000000 127.894632 28.400000 5.000000
1739 0 1 0.000000 127.894632 29.820000 5.000000
1740 0 1 0.000000 129.124388 30.530000 5.000000
1741 0 2 0.150000 129.124388 31.950000 5.000000
1742 0 2 0.150000 130.354144 32.660000 5.000000
1743 0 1 0.000000 130.354144 34.080000 5.000000
1744 0 1 0.000000 131.583900 34.790000 5.000000
1745 0 1 0.000000 131.583900 36.210000 5.000000
1746 0 1 0.000000 132.813656 36.920000 5.000000
1747 0 1 0.000000 132.813656 38.340000 5.000000
1748 0 1 0.000000 134.043412 39.050000 5.000000
1749 0 1 0.000000 113.137559 0.000000 5.000000
1750 0 1 0.000000 114.367315 0.710000 5.000000
1751 0 1 0.000000 114.367315 2.130000 5.000000
1752 0 1 0.000000 115.597071 2.840000 5.000000
1753 0 1 0.000000 115.597071 4.260000 5.000000
1754 0 1 0.000000 116.826827 4.970000 5.000000
1755 0 1 0.000000 116.826827 6.390000 5.000000
1756 0 1 0.000000 118.056583 7.100000 5.000000
1757 0 1 0.000000 118.056583 8.520000 5.000000
1758 0 1 0.000000 119.286339 9.230000 5.000000
1759 0 1 0.000000 119.286339 10.650000 5.000000
1760 0 1 0.000000 120.516095 11.360000 5.000000
1761 0 1 0.000000 120.516095 12.780000 5.000000
1762 0 1 0.000000 121.745851 13.490000 5.000000
1763 0 1 0.000000 121.745851 14.910000 5.000000
1764 0 1 0.000000 122.975607 15.620000 5.000000
1765 0 1 0.000000 122.975607 17.040000 5.000000
1766 0 1 0.000000 124.205363 17.750000 5.000000
1767 0 1 0.000000 124.205363 19.170000 5.000000
1768 0 2 0.150000 125.435119 19.880000 5.000000
1769 0 1 0.000000 125.435119 21.300000 5.000000
1770 0 1 0.000000 126.664876 22.010000 5.000000
1771 0 1 0.000000 126.664876 23.430000 5.000000
1772 0 1 0.000000 127.894632 24.140000 5.000000
1773 0 1 0.000000 127.894632 25.560000 5.000000
1774 0 1 0.000000 129.124388 26.270000 5.000000
1775 0 1 0.000000 129.124388 27.690000 5.000000
1776 0 1 0.000000 130.354144 28.400000 5.000000
1777 0 1 0.000000 130.354144 29.820000 5.000000
1778 0 1 0.000000 131.583900 30.530000 5.000000
1779 0 1 0.000000 131.583900 31.950000 5.000000
1780 0 1 0.000000 132.813656 32.660000 5.000000
1781 0 1 0.000000 132.813656 34.080000 5.000000
1782 0 1 0.000000 134.043412 34.790000 5.000000
1783 0 1 0.000000 134.043412 36.210000 5.000000
1784 0 1 0.000000 135.273168 36.920000 5.000000
1785 0 1 0.000000 135.273168 38.340000 5.000000
1786 0 1 0.000000 136.502924 39.050000 5.000000
1787 0 1 0.000000 115.597071 0.000000 5.000000
1788 0 1 0.000000 116.826827 0.710000 5.000000
1789 0 2 0.150000 116.826827 2.130000 5.000000
1790 0 1 0.000000 118.056583 2.840000 5.000000
1791 0 1 0.000000 118.056583 4.260000 5.000000
1792 0 2 0.150000 119.286339 4.970000 5.000000
1793 0 1 0.000000 119.286339 6.390000 5.000000
1794 0 1 0.000000 120.516095 7.100000 5.000000
1795 0 1 0.000000 120.516095 8.520000 5.000000
1796 0 1 0.000000 121.745851 9.230000 5.000000
1797 0 1 0.000000 121.745851 10.650000 5.000000
1798 0 1 0.000000 122.975607 11.360000 5.000000
1799 0 1 0.000000 122.975607 12.780000 5.000000
1800 0 1 0.000000 124.205363 13.490000 5.000000
1801 0 1 0.000000 124.205363 14.910000 5.000000
1802 0 1 0.000000 125.435119 15.620000 5.000000
1803 0 1 0.000000 125.435119 17.040000 5.000000
1804 0 1 0.000000 126.664876 17.750000 5.000000
1805 0 1 0.000000 126.664876 19.170000 5.000000
1806 0 1 0.000000 127.894632 19.880000 5.000000
1807 0 1 0.000000 127.894632 21.300000 5.000000
1808 0 1 0.000000 129.124388 22.010000 5.000000
1809 0 1 0.000000 129.124388 23.430000 5.000000
1810 0 1 0.000000 130.354144 24.140000 5.000000
1811 0 1 0.000000 130.354144 25.560000 5.000000
1812 0 1 0.000000 131.583900 26.270000 5.000000
1813 0 1 0.000000 131.583900 27.690000 5.000000
1814 0 2 0.150000 132.813656 28.400000 5.000000
1815 0 1 0.000000 132.813656 29.820000 5.000000
1816 0 1 0.000000 134.043412 30.530000 5.000000
1817 0 1 0.000000 134.043412 31.950000 5.000000
1818 0 1 0.000000 135.273168 32.660000 5.000000
1819 0 1 0.000000 135.273168 34.080000 5.000000
1820 0 1 0.000000 136.502924 34.790000 5.000000
1821 0 1 0.000000 136.502924 36.210000 5.000000
1822 0 1 0.000000 137.732680 36.920000 5.000000
1823 0 1 0.000000 137.732680 38.340000 5.000000
1824 0 1 0.000000 138.962436 39.050000 5.000000
1825 0 2 0.150000 118.056583 0.000000 5.000000
1826 0 1 0.000000 119.286339 0.710000 5.000000
1827 0 1 0.000000 119.286339 2.130000 5.000000
1828 0 1 0.000000 120.516095 2.840000 5.000000
1829 0 1 0.000000 120.516095 4.260000 5.000000
1830 0 1 0.000000 121.745851 4.970000 5.000000
1831 0 1 0.000000 121.745851 6.390000 5.000000
1832 0 1 0.000000 122.975607 7.100000 5.000000
1833 0 1 0.000000 122.975607 8.520000 5.000000
1834 0 1 0.000000 124.205363 9.230000 5.000000
1835 0 1 0.000000 124.205363 10.650000 5.000000
1836 0 1 0.000000 125.435119 11.360000 5.000000
1837 0 1 0.000000 125.435119 12.780000 5.000000
1838 0 1 0.000000 126.664876 13.490000 5.000000
1839 0 2 0.150000 126.664876 14.910000 5.000000
1840 0 1 0.000000 127.894632 15.620000 5.000000
1841 0 1 0.000000 127.894632 17.040000 5.000000
1842 0 2 0.150000 129.124388 17.750000 5.000000
1843 0 2 0.150000 129.124388 19.170000 5.000000
1844 0 1 0.000000 130.354144 19.880000 5.000000
1845 0 1 0.000000 130.354144 21.300000 5.000000
1846 0 1 0.000000 131.583900 22.010000 5.000000
1847 0 1 0.000000 131.583900 23.430000 5.000000
1848 0 2 0.150000 132.813656 24.140000 5.000000
1849 0 1 0.000000 132.813656 25.560000 5.000000
1850 0 1 0.000000 134.043412 26.270000 5.000000
1851 0 1 0.000000 134.043412 27.690000 5.000000
1852 0 1 0.000000 135.273168 28.400000 5.000000
1853 0 1 0.000000 135.273168 29.820000 5.000000
1854 0 1 0.000000 136.502924 30.530000 5.000000
1855 0 1 0.000000 136.502924 31.950000 5.000000
1856 0 1 0.000000 137.732680 32.660000 5.000000
1857 0 2 0.150000 137.732680 34.080000 5.000000
1858 0 1 0.000000 138.962436 34.790000 5.000000
1859 0 1 0.000000 138.962436 36.210000 5.000000
1860 0 1 0.000000 140.192192 36.920000 5.000000
1861 0 1 0.000000 140.192192 38.340000 5.000000
1862 0 1 0.000000 141.421948 39.050000 5.000000
1863 0 2 0.150000 120.516095 0.000000 5.000000
1864 0 1 0.000000 121.745851 0.710000 5.000000
1865 0 1 0.000000 121.745851 2.130000 5.000000
1866 0 1 0.000000 122.975607 2.840000 5.000000
1867 0 1 0.000000 122.975607 4.260000 5.000000
1868 0 1 0.000000 124.205363 4.970000 5.000000
1869 0 1 0.000000 124.205363 6.390000 5.000000
1870 0 1 0.000000 125.435119 7.100000 5.000000
1871 0 1 0.000000 125.435119 8.520000 5.000000
1872 0 1 0.000000 126.664876 9.230000 5.000000
1873 0 1 0.000000 126.664876 10.650000 5.000000
1874 0 1 0.000000 127.894632 11.360000 5.000000
1875 0 1 0.000000 127.894632 12.780000 5.000000
1876 0 1 0.000000 129.124388 13.490000 5.000000
1877 0 1 0.000000 129.124388 14.910000 5.000000
1878 0 1 0.000000 130.354144 15.620000 5.000000
1879 0 1 0.000000 130.354144 17.040000 5.000000
1880 0 1 0.000000 131.583900 17.750000 5.000000
1881 0 1 0.000000 131.583900 19.170000 5.000000
1882 0 1 0.000000 132.813656 19.880000 5.000000
1883 0 2 0.150000 132.813656 21.300000 5.000000
1884 0 1 0.000000 134.043412 22.010000 5.000000
1885 0 1 0.000000 134.043412 23.430000 5.000000
1886 0 1 0.000000 135.273168 24.140000 5.000000
1887 0 1 0.000000 135.273168 25.560000 5.000000
1888 0 1 0.000000 136.502924 26.270000 5.000000
1889 0 1 0.000000 136.502924 27.690000 5.000000
1890 0 1 0.000000 137.732680 28.400000 5.000000
1891 0 1 0.000000 137.732680 29.820000 5.000000
1892 0 1 0.000000 138.962436 30.530000 5.000000
1893 0 1 0.000000 138.962436 31.950000 5.000000
1894 0 1 0.000000 140.192192 32.660000 5.000000
1895 0 1 0.000000 140.192192 34.080000 5.000000
1896 0 1 0.000000 141.421948 34.790000 5.000000
1897 0 1 0.000000 141.421948 36.210000 5.000000
1898 0 1 0.000000 142.651705 36.920000 5.000000
1899 0 1 0.000000 142.651705 38.340000 5.000000
1900 0 1 0.000000 143.881461 39.050000 5.000000
1901 0 1 0.000000 122.975607 0.000000 5.000000
1902 0 1 0.000000 124.205363 0.710000 5.000000
1903 0 1 0.000000 124.205363 2.130000 5.000000
1904 0 1 0.000000 125.435119 2.840000 5.000000
1905 0 1 0.000000 125.435119 4.260000 5.000000
1906 0 1 0.000000 126.664876 4.970000 5.000000
1907 0 1 0.000000 126.664876 6.390000 5.000000
1908 0 1 0.000000 127.894632 7.100000 5.000000
1909 0 1 0.000000 127.894632 8.520000 5.000000
1910 0 1 0.000000 129.124388 9.230000 5.000000
1911 0 1 0.000000 129.124388 10.650000 5.000000
1912 0 1 0.000000 130.354144 11.360000 5.000000
1913 0 1 0.000000 130.354144 12.780000 5.000000
1914 0 1 0.000000 131.583900 13.490000 5.000000
1915 0 1 0.000000 131.583900 14.910000 5.000000
1916 0 1 0.000000 132.813656 15.620000 5.000000
1917 0 1 0.000000 132.813656 17.040000 5.000000
1918 0 1 0.000000 134.043412 17.750000 5.000000
1919 0 2 0.150000 134.043412 19.170000 5.000000
1920 0 1 0.000000 135.273168 19.880000 5.000000
1921 0 1 0.000000 135.273168 21.300000 5.000000
1922 0 1 0.000000 136.502924 22.010000 5.000000
1923 0 1 0.000000 136.502924 23.430000 5.000000
1924 0 1 0.000000 137.732680 24.140000 5.000000
1925 0 1 0.000000 137.732680 25.560000 5.000000
1926 0 1 0.000000 138.962436 26.270000 5.000000
1927 0 1 0.000000 138.962436 27.690000 5.000000
1928 0 1 0.000000 140.192192 28.400000 5.000000
1929 0 1 0.000000 140.192192 29.820000 5.000000
1930 0 1 0.000000 141.421948 30.530000 5.000000
1931 0 1 0.000000 141.421948 31.950000 5.000000
1932 0 1 0.000000 142.651705 32.660000 5.000000
1933 0 1 0.000000 142.651705 34.080000 5.000000
1934 0 1 0.000000 143.881461 34.790000 5.000000
1935 0 1 0.000000 143.881461 36.210000 5.000000
1936 0 1 0.000000 145.111217 36.920000 5.000000
1937 0 1 0.000000 145.111217 38.340000 5.000000
1938 0 1 0.000000 146.340973 39.050000 5.000000
1939 0 1 0.000000 125.435119 0.000000 5.000000
1940 0 1 0.000000 126.664876 0.710000 5.000000
1941 0 1 0.000000 126.664876 2.130000 5.000000
1942 0 1 0.000000 127.894632 2.840000 5.000000
1943 0 2 0.150000 127.894632 4.260000 5.000000
1944 0 1 0.000000 129.124388 4.970000 5.000000
1945 0 1 0.000000 129.124388 6.390000 5.000000
1946 0 1 0.000000 130.354144 7.100000 5.000000
1947 0 1 0.000000 130.354144 8.520000 5.000000
1948 0 1 0.000000 131.583900 9.230000 5.000000
1949 0 1 0.000000 131.583900 10.650000 5.000000
1950 0 2 0.150000 132.813656 11.360000 5.000000
1951 0 1 0.000000 132.813656 12.780000 5.000000
1952 0 1 0.000000 134.043412 13.490000 5.000000
1953 0 1 0.000000 134.043412 14.910000 5.000000
1954 0 1 0.000000 135.273168 15.620000 5.000000
1955 0 1 0.000000 135.273168 17.040000 5.000000
1956 0 1 0.000000 136.502924 17.750000 5.000000
1957 0 1 0.000000 136.502924 19.170000 5.000000
1958 0 1 0.000000 137.732680 19.880000 5.000000
1959 0 1 0.000000 137.732680 21.300000 5.000000
1960 0 1 0.000000 138.962436 22.010000 5.000000
1961 0 1 0.000000 138.962436 23.430000 5.000000
1962 0 1 0.000000 140.192192 24.140000 5.000000
1963 0 1 0.000000 140.192192 25.560000 5.000000
1964 0 1 0.000000 141.421948 26.270000 5.000000
1965 0 1 0.000000 141.421948 27.690000 5.000000
1966 0 1 0.000000 142.651705 28.400000 5.000000
1967 0 1 0.000000 142.651705 29.820000 5.000000
1968 0 1 0.000000 143.881461 30.530000 5.000000
1969 0 1 0.000000 143.881461 31.950000 5.000000
1970 0 1 0.000000 145.111217 32.660000 5.000000
1971 0 2 0.150000 145.111217 34.080000 5.000000
1972 0 1 0.000000 146.340973 34.790000 5.000000
1973 0 1 0.000000 146.340973 36.210000 5.000000
1974 0 1 0.000000 147.570729 36.920000 5.000000
1975 0 1 0.000000 147.570729 38.340000 5.000000
1976 0 1 0.000000 148.800485 39.050000 5.000000
1977 0 1 0.000000 127.894632 0.000000 5.000000
1978 0 1 0.000000 129.124388 0.710000 5.000000
1979 0 1 0.000000 129.124388 2.130000 5.000000
1980 0 1 0.000000 130.354144 2.840000 5.000000
1981 0 1 0.000000 130.354144 4.260000 5.000000
1982 0 1 0.000000 131.583900 4.970000 5.000000
1983 0 1 0.000000 131.583900 6.390000 5.000000
1984 0 1 0.000000 132.813656 7.100000 5.000000
1985 0 1 0.000000 132.813656 8.520000 5.000000
1986 0 1 0.000000 134.043412 9.230000 5.000000
1987 0 1 0.000000 134.043412 10.650000 5.000000
1988 0 1 0.000000 135.273168 11.360000 5.000000
1989 0 1 0.000000 135.273168 12.780000 5.000000
1990 0 1 0.000000 136.502924 13.490000 5.000000
1991 0 1 0.000000 136.502924 14.910000 5.000000
1992 0 1 0.000000 137.732680 15.620000 5.000000
1993 0 1 0.000000 137.732680 17.040000 5.000000
1994 0 1 0.000000 138.962436 17.750000 5.000000
1995 0 1 0.000000 138.962436 19.170000 5.000000
1996 0 1 0.000000 140.192192 19.880000 5.000000
1997 0 1 0.000000 140.192192 21.300000 5.000000
1998 0 1 0.000000 141.421948 22.010000 5.000000
1999 0 1 0.000000 141.421948 23.430000 5.000000
2000 0 1 0.000000 142.651705 24.140000 5.000000
2001 0 1 0.000000 142.651705 25.560000 5.000000
2002 0 1 0.000000 143.881461 26.270000 5.000000
2003 0 1 0.000000 143.881461 27.690000 5.000000
2004 0 2 0.150000 145.111217 28.400000 5.000000
2005 0 2 0.150000 145.111217 29.820000 5.000000
2006 0 1 0.000000 146.340973 30.530000 5.000000
2007 0 1 0.000000 146.340973 31.950000 5.000000
2008 0 1 0.000000 147.570729 32.660000 5.000000
2009 0 1 0.000000 147.570729 34.080000 5.000000
2010 0 1 0.000000 148.800485 34.790000 5.000000
2011 0 1 0.000000 148.800485 36.210000 5.000000
2012 0 1 0.000000 130.354144 0.000000 5.000000
2013 0 1 0.000000 131.583900 0.710000 5.000000
2014 0 1 0.000000 131.583900 2.130000 5.000000
2015 0 1 0.000000 132.813656 2.840000 5.000000
2016 0 1 0.000000 132.813656 4.260000 5.000000
2017 0 1 0.000000 134.043412 4.970000 5.000000
2018 0 2 0.150000 134.043412 6.390000 5.000000
2019 0 1 0.000000 135.273168 7.100000 5.000000
2020 0 1 0.000000 135.273168 8.520000 5.000000
2021 0 1 0.000000 136.502924 9.230000 5.000000
2022 0 1 0.000000 136.502924 10.650000 5.000000
2023 0 1 0.000000 137.732680 11.360000 5.000000
2024 0 1 0.000000 137.732680 12.780000 5.000000
2025 0 1 0.000000 138.962436 13.490000 5.000000
2026 0 1 0.000000 138.962436 14.910000 5.000000
2027 0 1 0.000000 140.192192 15.620000 5.000000
2028 0 1 0.000000 140.192192 17.040000 5.000000
2029 0 1 0.000000 141.421948 17.750000 5.000000
2030 0 1 0.000000 141.421948 19.170000 5.000000
2031 0 1 0.000000 142.651705 19.880000 5.000000
2032 0 1 0.000000 142.651705 21.300000 5.000000
2033 0 1 0.000000 143.881461 22.010000 5.000000
2034 0 1 0.000000 143.881461 23.430000 5.000000
2035 0 2 0.150000 145.111217 24.140000 5.000000
2036 0 1 0.000000 145.111217 25.560000 5.000000
2037 0 1 0.000000 146.340973 26.270000 5.000000
2038 0 1 0.000000 146.340973 27.690000 5.000000
2039 0 1 0.000000 147.570729 28.400000 5.000000
2040 0 1 0.000000 147.570729 29.820000 5.000000
2041 0 1 0.000000 148.800485 30.530000 5.000000
2042 0 1 0.000000 148.800485 31.950000 5.000000
2043 0 1 0.000000 132.813656 0.000000 5.000000
2044 0 1 0.000000 134.043412 0.710000 5.000000
2045 0 1 0.000000 134.043412 2.130000 5.000000
2046 0 1 0.000000 135.273168 2.840000 5.000000
2047 0 1 0.000000 135.273168 4.260000 5.000000
2048 0 2 0.150000 136.502924 4.970000 5.000000
2049 0 1 0.000000 136.502924 6.390000 5.000000
2050 0 1 0.000000 137.732680 7.100000 5.000000
2051 0 1 0.000000 137.732680 8.520000 5.000000
2052 0 1 0.000000 138.962436 9.230000 5.000000
2053 0 1 0.000000 138.962436 10.650000 5.000000
2054 0 2 0.150000 140.192192 11.360000 5.000000
2055 0 1 0.000000 140.192192 12.780000 5.000000
2056 0 2 0.150000 141.421948 13.490000 5.000000
2057 0 1 0.000000 141.421948 14.910000 5.000000
2058 0 2 0.150000 142.651705 15.620000 5.000000
2059 0 1 0.000000 142.651705 17.040000 5.000000
2060 0 1 0.000000 143.881461 17.750000 5.000000
2061 0 1 0.000000 143.881461 19.170000 5.000000
2062 0 1 0.000000 145.111217 19.880000 5.000000
2063 0 2 0.150000 145.111217 21.300000 5.000000
2064 0 1 0.000000 146.340973 22.010000 5.000000
2065 0 1 0.000000 146.340973 23.430000 5.000000
2066 0 1 0.000000 147.570729 24.140000 5.000000
2067 0 1 0.000000 147.570729 25.560000 5.000000
2068 0 1 0.000000 148.800485 26.270000 5.000000
2069 0 1 0.000000 148.800485 27.690000 5.000000
2070 0 1 0.000000 135.273168 0.000000 5.000000
2071 0 1 0.000000 136.502924 0.710000 5.000000
2072 0 1 0.000000 136.502924 2.130000 5.000000
2073 0 1 0.000000 137.732680 2.840000 5.000000
2074 0 2 0.150000 137.732680 4.260000 5.000000
2075 0 1 0.000000 138.962436 4.970000 5.000000
2076 0 1 0.000000 138.962436 6.390000 5.000000
2077 0 1 0.000000 140.192192 7.100000 5.000000
2078 0 1 0.000000 140.192192 8.520000 5.000000
2079 0 1 0.000000 141.421948 9.230000 5.000000
2080 0 1 0.000000 141.421948 10.650000 5.000000
2081 0 1 0.000000 142.651705 11.360000 5.000000
2082 0 1 0.000000 142.651705 12.780000 5.000000
2083 0 1 0.000000 143.881461 13.490000 5.000000
2084 0 1 0.000000 143.881461 14.910000 5.000000
2085 0 1 0.000000 145.111217 15.620000 5.000000
2086 0 2 0.150000 145.111217 17.040000 5.000000
2087 0 1 0.000000 146.340973 17.750000 5.000000
2088 0 1 0.000000 146.340973 19.170000 5.000000
2089 0 1 0.000000 147.570729 19.880000 5.000000
2090 0 1 0.000000 147.570729 21.300000 5.000000
2091 0 1 0.000000 148.800485 22.010000 5.000000
2092 0 1 0.000000 148.800485 23.430000 5.000000
2093 0 1 0.000000 137.732680 0.000000 5.000000
2094 0 1 0.000000 138.962436 0.710000 5.000000
2095 0 1 0.000000 138.962436 2.130000 5.000000
2096 0 1 0.000000 140.192192 2.840000 5.000000
2097 0 1 0.000000 140.192192 4.260000 5.000000
2098 0 1 0.000000 141.421948 4.970000 5.000000
2099 0 1 0.000000 141.421948 6.390000 5.000000
2100 0 1 0.000000 142.651705 7.100000 5.000000
2101 0 1 0.000000 142.651705 8.520000 5.000000
2102 0 1 0.000000 143.881461 9.230000 5.000000
2103 0 1 0.000000 143.881461 10.650000 5.000000
2104 0 1 0.000000 145.111217 11.360000 5.000000
2105 0 1 0.000000 145.111217 12.780000 5.000000
2106 0 1 0.000000 146.340973 13.490000 5.000000
2107 0 1 0.000000 146.340973 14.910000 5.000000
2108 0 2 0.150000 147.570729 15.620000 5.000000
2109 0 1 0.000000 147.570729 17.040000 5.000000
2110 0 1 0.000000 148.800485 17.750000 5.000000
2111 0 2 0.150000 148.800485 19.170000 5.000000
2112 0 1 0.000000 140.192192 0.000000 5.000000
2113 0 1 0.000000 141.421948 0.710000 5.000000
2114 0 1 0.000000 141.421948 2.130000 5.000000
2115 0 1 0.000000 142.651705 2.840000 5.000000
2116 0 1 0.000000 142.651705 4.260000 5.000000
2117 0 1 0.000000 143.881461 4.970000 5.000000
2118 0 1 0.000000 143.881461 6.390000 5.000000
2119 0 1 0.000000 145.111217 7.100000 5.000000
2120 0 1 0.000000 145.111217 8.520000 5.000000
2121 0 1 0.000000 146.340973 9.230000 5.000000
2122 0 1 0.000000 146.340973 10.650000 5.000000
2123 0 1 0.000000 147.570729 11.360000 5.000000
2124 0 1 0.000000 147.570729 12.780000 5.000000
2125 0 1 0.000000 148.800485 13.490000 5.000000
2126 0 1 0.000000 148.800485 14.910000 5.000000
2127 0 1 0.000000 142.651705 0.000000 5.000000
2128 0 1 0.000000 143.881461 0.710000 5.000000
2129 0 1 0.000000 143.881461 2.130000 5.000000
2130 0 1 0.000000 145.111217 2.840000 5.000000
2131 0 1 0.000000 145.111217 4.260000 5.000000
2132 0 1 0.000000 146.340973 4.970000 5.000000
2133 0 1 0.000000 146.340973 6.390000 5.000000
2134 0 2 0.150000 147.570729 7.100000 5.000000
2135 0 1 0.000000 147.570729 8.520000 5.000000
2136 0 1 0.000000 148.800485 9.230000 5.000000
2137 0 2 0.150000 148.800485 10.650000 5.000000
2138 0 1 0.000000 145.111217 0.000000 5.000000
2139 0 1 0.000000 146.340973 0.710000 5.000000
2140 0 1 0.000000 146.340973 2.130000 5.000000
2141 0 1 0.000000 147.570729 2.840000 5.000000
2142 0 1 0.000000 147.570729 4.260000 5.000000
2143 0 1 0.000000 148.800485 4.970000 5.000000
2144 0 1 0.000000 148.800485 6.390000 5.000000
2145 0 2 0.150000 147.570729 0.000000 5.000000
2146 0 1 0.000000 148.800485 0.710000 5.000000
2147 0 1 0.000000 148.800485 2.130000 5.000000
2148 0 1 0.000000 0.000000 0.000000 15.000000
2149 0 1 0.000000 1.229756 0.710000 15.000000
2150 0 1 0.000000 1.229756 2.130000 15.000000
2151 0 1 0.000000 2.459512 2.840000 15.000000
2152 0 1 0.000000 2.459512 4.260000 15.000000
2153 0 1 0.000000 3.689268 4.970000 15.000000
2154 0 1 0.000000 3.689268 6.390000 15.000000
2155 0 1 0.000000 4.919024 7.100000 15.000000
2156 0 1 0.000000 4.919024 8.520000 15.000000
2157 0 1 0.000000 6.148780 9.230000 15.000000
2158 0 1 0.000000 6.148780 10.650000 15.000000
2159 0 1 0.000000 7.378536 11.360000 15.000000
2160 0 1 0.000000 7.378536 12.780000 15.000000
2161 0 2 0.150000 8.608293 13.490000 15.000000
2162 0 1 0.000000 8.608293 14.910000 15.000000
2163 0 1 0.000000 9.838049 15.620000 15.000000
2164 0 1 0.000000 9.838049 17.040000 15.000000
2165 0 1 0.000000 11.067805 17.750000 15.000000
2166 0 1 0.000000 11.067805 19.170000 15.000000
2167 0 1 0.000000 12.297561 19.880000 15.000000
2168 0 1 0.000000 12.297561 21.300000 15.000000
2169 0 2 0.150000 13.527317 22.010000 15.000000
2170 0 1 0.000000 13.527317 23.430000 15.000000
2171 0 1 0.000000 14.757073 24.140000 15.000000
2172 0 1 0.000000 14.757073 25.560000 15.000000
2173 0 1 0.000000 15.986829 26.270000 15.000000
2174 0 2 0.150000 15.986829 27.690000 15.000000
2175 0 1 0.000000 17.216585 28.400000 15.000000
2176 0 1 0.000000 17.216585 29.820000 15.000000
2177 0 1 0.000000 18.446341 30.530000 15.000000
2178 0 1 0.000000 18.446341 31.950000 15.000000
2179 0 1 0.000000 19.676097 32.660000 15.000000
2180 0 1 0.000000 19.676097 34.080000 15.000000
2181 0 1 0.000000 20.905853 34.790000 15.000000
2182 0 1 0.000000 20.905853 36.210000 15.000000
2183 0 1 0.000000 22.135609 36.920000 15.000000
2184 0 1 0.000000 22.135609 38.340000 15.000000
2185 0 1 0.000000 23.365365 39.050000 15.000000
2186 0 1 0.000000 2.459512 0.000000 15.000000
2187 0 1 0.000000 3.689268 0.710000 15.000000
2188 0 1 0.000000 3.689268 2.130000 15.000000
2189 0 2 0.150000 4.919024 2.840000 15.000000
2190 0 1 0.000000 4.919024 4.260000 15.000000
2191 0 1 0.000000 6.148780 4.970000 15.000000
2192 0 1 0.000000 6.148780 6.390000 15.000000
2193 0 1 0.000000 7.378536 7.100000 15.000000
2194 0 1 0.000000 7.378536 8.520000 15.000000
2195 0 1 0.000000 8.608293 9.230000 15.000000
2196 0 1 0.000000 8.608293 10.650000 15.000000
2197 0 1 0.000000 9.838049 11.360000 15.000000
2198 0 1 0.000000 9.838049 12.780000 15.000000
2199 0 1 0.000000 11.067805 13.490000 15.000000
2200 0 1 0.000000 11.067805 14.910000 15.000000
2201 0 1 0.000000 12.297561 15.620000 15.000000
2202 0 1 0.000000 12.297561 17.040000 15.000000
2203 0 1 0.000000 13.527317 17.750000 15.000000
2204 0 1 0.000000 13.527317 19.170000 15.000000
2205 0 1 0.000000 14.757073 19.880000 15.000000
2206 0 1 0.000000 14.757073 21.300000 15.000000
2207 0 1 0.000000 15.986829 22.010000 15.000000
2208 0 1 0.000000 15.986829 23.430000 15.000000
2209 0 1 0.000000 17.216585 24.140000 15.000000
2210 0 1 0.000000 17.216585 25.560000 15.000000
2211 0 2 0.150000 18.446341 26.270000 15.000000
2212 0 1 0.000000 18.446341 27.690000 15.000000
2213 0 1 0.000000 19.676097 28.400000 15.000000
2214 0 2 0.150000 19.676097 29.820000 15.000000
2215 0 1 0.000000 20.905853 30.530000 15.000000
2216 0 1 0.000000 20.905853 31.950000 15.000000
2217 0 1 0.000000 22.135609 32.660000 15.000000
2218 0 1 0.000000 22.135609 34.080000 15.000000
2219 0 2 0.150000 23.365365 34.790000 15.000000
2220 0 1 0.000000 23.365365 36.210000 15.000000
2221 0 1 0.000000 24.595121 36.920000 15.000000
2222 0 2 0.150000 24.595121 38.340000 15.000000
2223 0 2 0.150000 25.824878 39.050000 15.000000
2224 0 1 0.000000 4.919024 0.000000 15.000000
2225 0 1 0.000000 6.148780 0.710000 15.000000
2226 0 1 0.000000 6.148780 2.130000 15.000000
2227 0 1 0.000000 7.378536 2.840000 15.000000
2228 0 2 0.150000 7.378536 4.260000 15.000000
2229 0 1 0.000000 8.608293 4.970000 15.000000
2230 0 1 0.000000 8.608293 6.390000 15.000000
2231 0 1 0.000000 9.838049 7.100000 15.000000
2232 0 1 0.000000 9.838049 8.520000 15.000000
2233 0 1 0.000000 11.067805 9.230000 15.000000
2234 0 1 0.000000 11.067805 10.650000 15.000000
2235 0 1 0.000000 12.297561 11.360000 15.000000
2236 0 1 0.000000 12.297561 12.780000 15.000000
2237 0 2 0.150000 13.527317 13.490000 15.000000
2238 0 1 0.000000 13.527317 14.910000 15.000000
2239 0 1 0.000000 14.757073 15.620000 15.000000
2240 0 1 0.000000 14.757073 17.040000 15.000000
2241 0 1 0.000000 15.986829 17.750000 15.000000
2242 0 1 0.000000 15.986829 19.170000 15.000000
2243 0 1 0.000000 17.216585 19.880000 15.000000
2244 0 1 0.000000 17.216585 21.300000 15.000000
2245 0 1 0.000000 18.446341 22.010000 15.000000
2246 0 1 0.000000 18.446341 23.430000 15.000000
2247 0 1 0.000000 19.676097 24.140000 15.000000
2248 0 1 0.000000 19.676097 25.560000 15.000000
2249 0 1 0.000000 20.905853 26.270000 15.000000
2250 0 1 0.000000 20.905853 27.690000 15.000000
2251 0 1 0.000000 22.135609 28.400000 15.000000
2252 0 1 0.000000 22.135609 29.820000 15.000000
2253 0 1 0.000000 23.365365 30.530000 15.000000
2254 0 1 0.000000 23.365365 31.950000 15.000000
2255 0 1 0.000000 24.595121 32.660000 15.000000
2256 0 1 0.000000 24.595121 34.080000 15.000000
2257 0 1 0.000000 25.824878 34.790000 15.000000
2258 0 1 0.000000 25.824878 36.210000 15.000000
2259 0 1 0.000000 27.054634 36.920000 15.000000
2260 0 1 0.000000 27.054634 38.340000 15.000000
2261 0 2 0.150000 28.284390 39.050000 15.000000
2262 0 1 0.000000 7.378536 0.000000 15.000000
2263 0 1 0.000000 8.608293 0.710000 15.000000
2264 0 1 0.000000 8.608293 2.130000 15.000000
2265 0 1 0.000000 9.838049 2.840000 15.000000
2266 0 1 0.000000 9.838049 4.260000 15.000000
2267 0 2 0.150000 11.067805 4.970000 15.000000
2268 0 1 0.000000 11.067805 6.390000 15.000000
2269 0 1 0.000000 12.297561 7.100000 15.000000
2270 0 1 0.000000 12.297561 8.520000 15.000000
2271 0 1 0.000000 13.527317 9.230000 15.000000
2272 0 2 0.150000 13.527317 10.650000 15.000000
2273 0 1 0.000000 14.757073 11.360000 15.000000
2274 0 1 0.000000 14.757073 12.780000 15.000000
2275 0 1 0.000000 15.986829 13.490000 15.000000
2276 0 1 0.000000 15.986829 14.910000 15.000000
2277 0 1 0.000000 17.216585 15.620000 15.000000
2278 0 1 0.000000 17.216585 17.040000 15.000000
2279 0 1 0.000000 18.446341 17.750000 15.000000
2280 0 1 0.000000 18.446341 19.170000 15.000000
2281 0 1 0.000000 19.676097 19.880000 15.000000
2282 0 1 0.000000 19.676097 21.300000 15.000000
2283 0 1 0.000000 20.905853 22.010000 15.000000
2284 0 1 0.000000 20.905853 23.430000 15.000000
2285 0 1 0.000000 22.135609 24.140000 15.000000
2286 0 2 0.150000 22.135609 25.560000 15.000000
2287 0 1 0.000000 23.365365 26.270000 15.000000
2288 0 1 0.000000 23.365365 27.690000 15.000000
2289 0 1 0.000000 24.595121 28.400000 15.000000
2290 0 1 0.000000 24.595121 29.820000 15.000000
2291 0 1 0.000000 25.824878 30.530000 15.000000
2292 0 2 0.150000 25.824878 31.950000 15.000000
2293 0 1 0.000000 27.054634 32.660000 15.000000
2294 0 1 0.000000 27.054634 34.080000 15.000000
2295 0 2 0.150000 28.284390 34.790000 15.000000
2296 0 1 0.000000 28.284390 36.210000 15.000000
2297 0 1 0.000000 29.514146 36.920000 15.000000
2298 0 1 0.000000 29.514146 38.340000 15.000000
2299 0 1 0.000000 30.743902 39.050000 15.000000
2300 0 1 0.000000 9.838049 0.000000 15.000000
2301 0 1 0.000000 11.067805 0.710000 15.000000
2302 0 1 0.000000 11.067805 2.130000 15.000000
2303 0 1 0.000000 12.297561 2.840000 15.000000
2304 0 1 0.000000 12.297561 4.260000 15.000000
2305 0 1 0.000000 13.527317 4.970000 15.000000
2306 0 1 0.000000 13.527317 6.390000 15.000000
2307 0 1 0.000000 14.757073 7.100000 15.000000
2308 0 2 0.150000 14.757073 8.520000 15.000000
2309 0 1 0.000000 15.986829 9.230000 15.000000
2310 0 1 0.000000 15.986829 10.650000 15.000000
2311 0 1 0.000000 17.216585 11.360000 15.000000
2312 0 1 0.000000 17.216585 12.780000 15.000000
2313 0 1 0.000000 18.446341 13.490000 15.000000
2314 0 1 0.000000 18.446341 14.910000 15.000000
2315 0 1 0.000000 19.676097 15.620000 15.000000
2316 0 2 0.150000 19.676097 17.040000 15.000000
2317 0 1 0.000000 20.905853 17.750000 15.000000
2318 0 1 0.000000 20.905853 19.170000 15.000000
2319 0 1 0.000000 22.135609 19.880000 15.000000
2320 0 1 0.000000 22.135609 21.300000 15.000000
2321 0 1 0.000000 23.365365 22.010000 15.000000
2322 0 1 0.000000 23.365365 23.430000 15.000000
2323 0 1 0.000000 24.595121 24.140000 15.000000
2324 0 1 0.000000 24.595121 25.560000 15.000000
2325 0 1 0.000000 25.824878 26.270000 15.000000
2326 0 1 0.000000 25.824878 27.690000 15.000000
2327 0 1 0.000000 27.054634 28.400000 15.000000
2328 0 1 0.000000 27.054634 29.820000 15.000000
2329 0 1 0.000000 28.284390 30.530000 15.000000
2330 0 2 0.150000 28.284390 31.950000 15.000000
2331 0 1 0.000000 29.514146 32.660000 15.000000
2332 0 1 0.000000 29.514146 34.080000 15.000000
2333 0 1 0.000000 30.743902 34.790000 15.000000
2334 0 1 0.000000 30.743902 36.210000 15.000000
2335 0 1 0.000000 31.973658 36.920000 15.000000
2336 0 1 0.000000 31.973658 38.340000 15.000000
2337 0 1 0.000000 33.203414 39.050000 15.000000
2338 0 1 0.000000 12.297561 0.000000 15.000000
2339 0 1 0.000000 13.527317 0.710000 15.000000
2340 0 1 0.000000 13.527317 2.130000 15.000000
2341 0 1 0.000000 14.757073 2.840000 15.000000
2342 0 1 0.000000 14.757073 4.260000 15.000000
2343 0 1 0.000000 15.986829 4.970000 15.000000
2344 0 2 0.150000 15.986829 6.390000 15.000000
2345 0 1 0.000000 17.216585 7.100000 15.000000
2346 0 1 0.000000 17.216585 8.520000 15.000000
2347 0 1 0.000000 18.446341 9.230000 15.000000
2348 0 2 0.150000 18.446341 10.650000 15.000000
2349 0 1 0.000000 19.676097 11.360000 15.000000
2350 0 1 0.000000 19.676097 12.780000 15.000000
2351 0 1 0.000000 20.905853 13.490000 15.000000
2352 0 1 0.000000 20.905853 14.910000 15.000000
2353 0 1 0.000000 22.135609 15.620000 15.000000
2354 0 1 0.000000 22.135609 17.040000 15.000000
2355 0 1 0.000000 23.365365 17.750000 15.000000
2356 0 2 0.150000 23.365365 19.170000 15.000000
2357 0 1 0.000000 24.595121 19.880000 15.000000
2358 0 2 0.150000 24.595121 21.300000 15.000000
2359 0 1 0.000000 25.824878 22.010000 15.000000
2360 0 2 0.150000 25.824878 23.430000 15.000000
2361 0 1 0.000000 27.054634 24.140000 15.000000
2362 0 1 0.000000 27.054634 25.560000 15.000000
2363 0 1 0.000000 28.284390 26.270000 15.000000
2364 0 1 0.000000 28.284390 27.690000 15.000000
2365 0 1 0.000000 29.514146 28.400000 15.000000
2366 0 1 0.000000 29.514146 29.820000 15.000000
2367 0 1 0.000000 30.743902 30.530000 15.000000
2368 0 2 0.150000 30.743902 31.950000 15.000000
2369 0 1 0.000000 31.973658 32.660000 15.000000
2370 0 1 0.000000 31.973658 34.080000 15.000000
2371 0 1 0.000000 33.203414 34.790000 15.000000
2372 0 1 0.000000 33.203414 36.210000 15.000000
2373 0 1 0.000000 34.433170 36.920000 15.000000
2374 0 1 0.000000 34.433170 38.340000 15.000000
2375 0 1 0.000000 35.662926 39.050000 15.000000
2376 0 1 0.000000 14.757073 0.000000 15.000000
2377 0 1 0.000000 15.986829 0.710000 15.000000
2378 0 1 0.000000 15.986829 2.130000 15.000000
2379 0 1 0.000000 17.216585 2.840000 15.000000
2380 0 1 0.000000 17.216585 4.260000 15.000000
2381 0 1 0.000000 18.446341 4.970000 15.000000
2382 0 2 0.150000 18.446341 6.390000 15.000000
2383 0 1 0.000000 19.676097 7.100000 15.000000
2384 0 2 0.150000 19.676097 8.520000 15.000000
2385 0 1 0.000000 20.905853 9.230000 15.000000
2386 0 1 0.000000 20.905853 10.650000 15.000000
2387 0 1 0.000000 22.135609 11.360000 15.000000
2388 0 1 0.000000 22.135609 12.780000 15.000000
2389 0 1 0.000000 23.365365 13.490000 15.000000
2390 0 1 0.000000 23.365365 14.910000 15.000000
2391 0 1 0.000000 24.595121 15.620000 15.000000
2392 0 1 0.000000 24.595121 17.040000 15.000000
2393 0 1 0.000000 25.824878 17.750000 15.000000
2394 0 1 0.000000 25.824878 19.170000 15.000000
2395 0 1 0.000000 27.054634 19.880000 15.000000
2396 0 1 0.000000 27.054634 21.300000 15.000000
2397 0 1 0.000000 28.284390 22.010000 15.000000
2398 0 1 0.000000 28.284390 23.430000 15.000000
2399 0 1 0.000000 29.514146 24.140000 15.000000
2400 0 1 0.000000 29.514146 25.560000 15.000000
2401 0 1 0.000000 30.743902 26.270000 15.000000
2402 0 1 0.000000 30.743902 27.690000 15.000000
2403 0 1 0.000000 31.973658 28.400000 15.000000
2404 0 2 0.150000 31.973658 29.820000 15.000000
2405 0 1 0.000000 33.203414 30.530000 15.000000
2406 0 1 0.000000 33.203414 31.950000 15.000000
2407 0 1 0.000000 34.433170 32.660000 15.000000
2408 0 1 0.000000 34.433170 34.080000 15.000000
2409 0 1 0.000000 35.662926 34.790000 15.000000
2410 0 1 0.000000 35.662926 36.210000 15.000000
2411 0 1 0.000000 36.892682 36.920000 15.000000
2412 0 1 0.000000 36.892682 38.340000 15.000000
2413 0 1 0.000000 38.122438 39.050000 15.000000
2414 0 1 0.000000 17.216585 0.000000 15.000000
2415 0 1 0.000000 18.446341 0.710000 15.000000
2416 0 1 0.000000 18.446341 2.130000 15.000000
2417 0 1 0.000000 19.676097 2.840000 15.000000
2418 0 1 0.000000 19.676097 4.260000 15.000000
2419 0 1 0.000000 20.905853 4.970000 15.000000
2420 0 1 0.000000 20.905853 6.390000 15.000000
2421 0 1 0.000000 22.135609 7.100000 15.000000
2422 0 1 0.000000 22.135609 8.520000 15.000000
2423 0 1 0.000000 23.365365 9.230000 15.000000
2424 0 1 0.000000 23.365365 10.650000 15.000000
2425 0 1 0.000000 24.595121 11.360000 15.000000
2426 0 1 0.000000 24.595121 12.780000 15.000000
2427 0 1 0.000000 25.824878 13.490000 15.000000
2428 0 1 0.000000 25.824878 14.910000 15.000000
2429 0 1 0.000000 27.054634 15.620000 15.000000
2430 0 1 0.000000 27.054634 17.040000 15.000000
2431 0 1 0.000000 28.284390 17.750000 15.000000
2432 0 1 0.000000 28.284390 19.170000 15.000000
2433 0 1 0.000000 29.514146 19.880000 15.000000
2434 0 1 0.000000 29.514146 21.300000 15.000000
2435 0 2 0.150000 30.743902 22.010000 15.000000
2436 0 1 0.000000 30.743902 23.430000 15.000000
2437 0 1 0.000000 31.973658 24.140000 15.000000
2438 0 1 0.000000 31.973658 25.560000 15.000000
2439 0 1 0.000000 33.203414 26.270000 15.000000
2440 0 1 0.000000 33.203414 27.690000 15.000000
2441 0 2 0.150000 34.433170 28.400000 15.000000
2442 0 2 0.150000 34.433170 29.820000 15.000000
2443 0 1 0.000000 35.662926 30.530000 15.000000
2444 0 1 0.000000 35.662926 31.950000 15.000000
2445 0 2 0.150000 36.892682 32.660000 15.000000
2446 0 1 0.000000 36.892682 34.080000 15.000000
2447 0 1 0.000000 38.122438 34.790000 15.000000
2448 0 1 0.000000 38.122438 36.210000 15.000000
2449 0 1 0.000000 39.352194 36.920000 15.000000
2450 0 1 0.000000 39.352194 38.340000 15.000000
2451 0 1 0.000000 40.581950 39.050000 15.000000
2452 0 1 0.000000 19.676097 0.000000 15.000000
2453 0 2 0.150000 20.905853 0.710000 15.000000
2454 0 1 0.000000 20.905853 2.130000 15.000000
2455 0 1 0.000000 22.135609 2.840000 15.000000
2456 0 1 0.000000 22.135609 4.260000 15.000000
2457 0 1 0.000000 23.365365 4.970000 15.000000
2458 0 1 0.000000 23.365365 6.390000 15.000000
2459 0 1 0.000000 24.595121 7.100000 15.000000
2460 0 2 0.150000 24.595121 8.520000 15.000000
2461 0 1 0.000000 25.824878 9.230000 15.000000
2462 0 1 0.000000 25.824878 10.650000 15.000000
2463 0 1 0.000000 27.054634 11.360000 15.000000
2464 0 1 0.000000 27.054634 12.780000 15.000000
2465 0 1 0.000000 28.284390 13.490000 15.000000
2466 0 1 0.000000 28.284390 14.910000 15.000000
2467 0 1 0.000000 29.514146 15.620000 15.000000
2468 0 1 0.000000 29.514146 17.040000 15.000000
2469 0 1 0.000000 30.743902 17.750000 15.000000
2470 0 1 0.000000 30.743902 19.170000 15.000000
2471 0 1 0.000000 31.973658 19.880000 15.000000
2472 0 1 0.000000 31.973658 21.300000 15.000000
2473 0 1 0.000000 33.203414 22.010000 15.000000
2474 0 1 0.000000 33.203414 23.430000 15.000000
2475 0 1 0.000000 34.433170 24.140000 15.000000
2476 0 1 0.000000 34.433170 25.560000 15.000000
2477 0 1 0.000000 35.662926 26.270000 15.000000
2478 0 1 0.000000 35.662926 27.690000 15.000000
2479 0 1 0.000000 36.892682 28.400000 15.000000
2480 0 1 0.000000 36.892682 29.820000 15.000000
2481 0 1 0.000000 38.122438 30.530000 15.000000
2482 0 1 0.000000 38.122438 31.950000 15.000000
2483 0 1 0.000000 39.352194 32.660000 15.000000
2484 0 1 0.000000 39.352194 34.080000 15.000000
2485 0 1 0.000000 40.581950 34.790000 15.000000
2486 0 1 0.000000 40.581950 36.210000 15.000000
2487 0 1 0.000000 41.811706 36.920000 15.000000
2488 0 1 0.000000 41.811706 38.340000 15.000000
2489 0 1 0.000000 43.041463 39.050000 15.000000
2490 0 1 0.000000 22.135609 0.000000 15.000000
2491 0 1 0.000000 23.365365 0.710000 15.000000
2492 0 1 0.000000 23.365365 2.130000 15.000000
2493 0 2 0.150000 24.595121 2.840000 15.000000
2494 0 1 0.000000 24.595121 4.260000 15.000000
2495 0 2 0.150000 25.824878 4.970000 15.000000
2496 0 1 0.000000 25.824878 6.390000 15.000000
2497 0 1 0.000000 27.054634 7.100000 15.000000
2498 0 1 0.000000 27.054634 8.520000 15.000000
2499 0 1 0.000000 28.284390 9.230000 15.000000
2500 0 1 0.000000 28.284390 10.650000 15.000000
2501 0 2 0.150000 29.514146 11.360000 15.000000
2502 0 1 0.000000 29.514146 12.780000 15.000000
2503 0 1 0.000000 30.743902 13.490000 15.000000
2504 0 1 0.000000 30.743902 14.910000 15.000000
2505 0 1 0.000000 31.973658 15.620000 15.000000
2506 0 1 0.000000 31.973658 17.040000 15.000000
2507 0 1 0.000000 33.203414 17.750000 15.000000
2508 0 1 0.000000 33.203414 19.170000 15.000000
2509 0 1 0.000000 34.433170 19.880000 15.000000
2510 0 1 0.000000 34.433170 21.300000 15.000000
2511 0 1 0.000000 35.662926 22.010000 15.000000
2512 0 1 0.000000 35.662926 23.430000 15.000000
2513 0 1 0.000000 36.892682 24.140000 15.000000
2514 0 1 0.000000 36.892682 25.560000 15.000000
2515 0 1 0.000000 38.122438 26.270000 15.000000
2516 0 1 0.000000 38.122438 27.690000 15.000000
2517 0 1 0.000000 39.352194 28.400000 15.000000
2518 0 1 0.000000 39.352194 29.820000 15.000000
2519 0 1 0.000000 40.581950 30.530000 15.000000
2520 0 1 0.000000 40.581950 31.950000 15.000000
2521 0 1 0.000000 41.811706 32.660000 15.000000
2522 0 1 0.000000 41.811706 34.080000 15.000000
2523 0 1 0.000000 43.041463 34.790000 15.000000
2524 0 1 0.000000 43.041463 36.210000 15.000000
2525 0 1 0.000000 44.271219 36.920000 15.000000
2526 0 1 0.000000 44.271219 38.340000 15.000000
2527 0 2 0.150000 45.500975 39.050000 15.000000
2528 0 1 0.000000 24.595121 0.000000 15.000000
2529 0 1 0.000000 25.824878 0.710000 15.000000
2530 0 1 0.000000 25.824878 2.130000 15.000000
2531 0 2 0.150000 27.054634 2.840000 15.000000
2532 0 1 0.000000 27.054634 4.260000 15.000000
2533 0 1 0.000000 28.284390 4.970000 15.000000
2534 0 1 0.000000 28.284390 6.390000 15.000000
2535 0 1 0.000000 29.514146 7.100000 15.000000
2536 0 1 0.000000 29.514146 8.520000 15.000000
2537 0 1 0.000000 30.743902 9.230000 15.000000
2538 0 1 0.000000 30.743902 10.650000 15.000000
2539 0 1 0.000000 31.973658 11.360000 15.000000
2540 0 1 0.000000 31.973658 12.780000 15.000000
2541 0 1 0.000000 33.203414 13.490000 15.000000
2542 0 1 0.000000 33.203414 14.910000 15.000000
2543 0 1 0.000000 34.433170 15.620000 15.000000
2544 0 1 0.000000 34.433170 17.040000 15.000000
2545 0 1 0.000000 35.662926 17.750000 15.000000
2546 0 1 0.000000 35.662926 19.170000 15.000000
2547 0 1 0.000000 36.892682 19.880000 15.000000
2548 0 1 0.000000 36.892682 21.300000 15.000000
2549 0 1 0.000000 38.122438 22.010000 15.000000
2550 0 1 0.000000 38.122438 23.430000 15.000000
2551 0 2 0.150000 39.352194 24.140000 15.000000
2552 0 1 0.000000 39.352194 25.560000 15.000000
2553 0 1 0.000000 40.581950 26.270000 15.000000
2554 0 1 0.000000 40.581950 27.690000 15.000000
2555 0 1 0.000000 41.811706 28.400000 15.000000
2556 0 1 0.000000 41.811706 29.820000 15.000000
2557 0 1 0.000000 43.041463 30.530000 15.000000
2558 0 1 0.000000 43.041463 31.950000 15.000000
2559 0 1 0.000000 44.271219 32.660000 15.000000
2560 0 1 0.000000 44.271219 34.080000 15.000000
2561 0 1 0.000000 45.500975 34.790000 15.000000
2562 0 1 0.000000 45.500975 36.210000 15.000000
2563 0 1 0.000000 46.730731 36.920000 15.000000
2564 0 1 0.000000 46.730731 38.340000 15.000000
2565 0 1 0.000000 47.960487 39.050000 15.000000
2566 0 1 0.000000 27.054634 0.000000 15.000000
2567 0 1 0.000000 28.284390 0.710000 15.000000
2568 0 1 0.000000 28.284390 2.130000 15.000000
2569 0 1 0.000000 29.514146 2.840000 15.000000
2570 0 1 0.000000 29.514146 4.260000 15.000000
2571 0 1 0.000000 30.743902 4.970000 15.000000
2572 0 1 0.000000 30.743902 6.390000 15.000000
2573 0 1 0.000000 31.973658 7.100000 15.000000
2574 0 2 0.150000 31.973658 8.520000 15.000000
2575 0 1 0.000000 33.203414 9.230000 15.000000
2576 0 2 0.150000 33.203414 10.650000 15.000000
2577 0 1 0.000000 34.433170 11.360000 15.000000
2578 0 1 0.000000 34.433170 12.780000 15.000000
2579 0 1 0.000000 35.662926 13.490000 15.000000
2580 0 1 0.000000 35.662926 14.910000 15.000000
2581 0 1 0.000000 36.892682 15.620000 15.000000
2582 0 1 0.000000 36.892682 17.040000 15.000000
2583 0 1 0.000000 38.122438 17.750000 15.000000
2584 0 1 0.000000 38.122438 19.170000 15.000000
2585 0 1 0.000000 39.352194 19.880000 15.000000
2586 0 1 0.000000 39.352194 21.300000 15.000000
2587 0 2 0.150000 40.581950 22.010000 15.000000
2588 0 1 0.000000 40.581950 23.430000 15.000000
2589 0 2 0.150000 41.811706 24.140000 15.000000
2590 0 1 0.000000 41.811706 25.560000 15.000000
2591 0 1 0.000000 43.041463 26.270000 15.000000
2592 0 1 0.000000 43.041463 27.690000 15.000000
2593 0 1 0.000000 44.271219 28.400000 15.000000
2594 0 2 0.150000 44.271219 29.820000 15.000000
2595 0 1 0.000000 45.500975 30.530000 15.000000
2596 0 1 0.000000 45.500975 31.950000 15.000000
2597 0 1 0.000000 46.730731 32.660000 15.000000
2598 0 1 0.000000 46.730731 34.080000 15.000000
2599 0 1 0.000000 47.960487 34.790000 15.000000
2600 0 1 0.000000 47.960487 36.210000 15.000000
2601 0 1 0.000000 49.190243 36.920000 15.000000
2602 0 1 0.000000 49.190243 38.340000 15.000000
2603 0 1 0.000000 50.419999 39.050000 15.000000
2604 0 1 0.000000 29.514146 0.000000 15.000000
2605 0 2 0.150000 30.743902 0.710000 15.000000
2606 0 1 0.000000 30.743902 2.130000 15.000000
2607 0 1 0.000000 31.973658 2.840000 15.000000
2608 0 1 0.000000 31.973658 4.260000 15.000000
2609 0 1 0.000000 33.203414 4.970000 15.000000
2610 0 1 0.000000 33.203414 6.390000 15.000000
2611 0 1 0.000000 34.433170 7.100000 15.000000
2612 0 1 0.000000 34.433170 8.520000 15.000000
2613 0 1 0.000000 35.662926 9.230000 15.000000
2614 0 1 0.000000 35.662926 10.650000 15.000000
2615 0 1 0.000000 36.892682 11.360000 15.000000
2616 0 1 0.000000 36.892682 12.780000 15.000000
2617 0 1 0.000000 38.122438 13.490000 15.000000
2618 0 1 0.000000 38.122438 14.910000 15.000000
2619 0 1 0.000000 39.352194 15.620000 15.000000
2620 0 1 0.000000 39.352194 17.040000 15.000000
2621 0 1 0.000000 40.581950 17.750000 15.000000
2622 0 1 0.000000 40.581950 19.170000 15.000000
2623 0 1 0.000000 41.811706 19.880000 15.000000
2624 0 1 0.000000 41.811706 21.300000 15.000000
2625 0 1 0.000000 43.041463 22.010000 15.000000
2626 0 1 0.000000 43.041463 23.430000 15.000000
2627 0 1 0.000000 44.271219 24.140000 15.000000
2628 0 1 0.000000 44.271219 25.560000 15.000000
2629 0 1 0.000000 45.500975 26.270000 15.000000
2630 0 1 0.000000 45.500975 27.690000 15.000000
2631 0 1 0.000000 46.730731 28.400000 15.000000
2632 0 1 0.000000 46.730731 29.820000 15.000000
2633 0 1 0.000000 47.960487 30.530000 15.000000
2634 0 2 0.150000 47.960487 31.950000 15.000000
2635 0 1 0.000000 49.190243 32.660000 15.000000
2636 0 1 0.000000 49.190243 34.080000 15.000000
2637 0 1 0.000000 50.419999 34.790000 15.000000
2638 0 1 0.000000 50.419999 36.210000 15.000000
2639 0 1 0.000000 51.649755 36.920000 15.000000
2640 0 1 0.000000 51.649755 38.340000 15.000000
2641 0 1 0.000000 52.879511 39.050000 15.000000
2642 0 1 0.000000 31.973658 0.000000 15.000000
2643 0 1 0.000000 33.203414 0.710000 15.000000
2644 0 1 0.000000 33.203414 2.130000 15.000000
2645 0 1 0.000000 34.433170 2.840000 15.000000
2646 0 1 0.000000 34.433170 4.260000 15.000000
2647 0 1 0.000000 35.662926 4.970000 15.000000
2648 0 1 0.000000 35.662926 6.390000 15.000000
2649 0 1 0.000000 36.892682 7.100000 15.000000
2650 0 1 0.000000 36.892682 8.520000 15.000000
2651 0 1 0.000000 38.122438 9.230000 15.000000
2652 0 1 0.000000 38.122438 10.650000 15.000000
2653 0 1 0.000000 39.352194 11.360000 15.000000
2654 0 1 0.000000 39.352194 12.780000 15.000000
2655 0 1 0.000000 40.581950 13.490000 15.000000
2656 0 1 0.000000 40.581950 14.910000 15.000000
2657 0 1 0.000000 41.811706 15.620000 15.000000
2658 0 1 0.000000 41.811706 17.040000 15.000000
2659 0 1 0.000000 43.041463 17.750000 15.000000
2660 0 1 0.000000 43.041463 19.170000 15.000000
2661 0 1 0.000000 44.271219 19.880000 15.000000
2662 0 1 0.000000 44.271219 21.300000 15.000000
2663 0 1 0.000000 45.500975 22.010000 15.000000
2664 0 1 0.000000 45.500975 23.430000 15.000000
2665 0 1 0.000000 46.730731 24.140000 15.000000
2666 0 1 0.000000 46.730731 25.560000 15.000000
2667 0 1 0.000000 47.960487 26.270000 15.000000
2668 0 1 0.000000 47.960487 27.690000 15.000000
2669 0 1 0.000000 49.190243 28.400000 15.000000
2670 0 1 0.000000 49.190243 29.820000 15.000000
2671 0 1 0.000000 50.419999 30.530000 15.000000
2672 0 1 0.000000 50.419999 31.950000 15.000000
2673 0 1 0.000000 51.649755 32.660000 15.000000
2674 0 1 0.000000 51.649755 34.080000 15.000000
2675 0 1 0.000000 52.879511 34.790000 15.000000
2676 0 1 0.000000 52.879511 36.210000 15.000000
2677 0 1 0.000000 54.109267 36.920000 15.000000
2678 0 1 0.000000 54.109267 38.340000 15.000000
2679 0 1 0.000000 55.339023 39.050000 15.000000
2680 0 1 0.000000 34.433170 0.000000 15.000000
2681 0 1 0.000000 35.662926 0.710000 15.000000
2682 0 1 0.000000 35.662926 2.130000 15.000000
2683 0 1 0.000000 36.892682 2.840000 15.000000
2684 0 1 0.000000 36.892682 4.260000 15.000000
2685 0 1 0.000000 38.122438 4.970000 15.000000
2686 0 1 0.000000 38.122438 6.390000 15.000000
2687 0 1 0.000000 39.352194 7.100000 15.000000
2688 0 1 0.000000 39.352194 8.520000 15.000000
2689 0 2 0.150000 40.581950 9.230000 15.000000
2690 0 1 0.000000 40.581950 10.650000 15.000000
2691 0 1 0.000000 41.811706 11.360000 15.000000
2692 0 2 0.150000 41.811706 12.780000 15.000000
2693 0 1 0.000000 43.041463 13.490000 15.000000
2694 0 1 0.000000 43.041463 14.910000 15.000000
2695 0 1 0.000000 44.271219 15.620000 15.000000
2696 0 1 0.000000 44.271219 17.040000 15.000000
2697 0 1 0.000000 45.500975 17.750000 15.000000
2698 0 1 0.000000 45.500975 19.170000 15.000000
2699 0 1 0.000000 46.730731 19.880000 15.000000
2700 0 1 0.000000 46.730731 21.300000 15.000000
2701 0 1 0.000000 47.960487 22.010000 15.000000
2702 0 1 0.000000 47.960487 23.430000 15.000000
2703 0 1 0.000000 49.190243 24.140000 15.000000
2704 0 1 0.000000 49.190243 25.560000 15.000000
2705 0 1 0.000000 50.419999 26.270000 15.000000
2706 0 1 0.000000 50.419999 27.690000 15.000000
2707 0 1 0.000000 51.649755 28.400000 15.000000
2708 0 1 0.000000 51.649755 29.820000 15.000000
2709 0 1 0.000000 52.879511 30.530000 15.000000
2710 0 1 0.000000 52.879511 31.950000 15.000000
2711 0 1 0.000000 54.109267 32.660000 15.000000
2712 0 1 0.000000 54.109267 34.080000 15.000000
2713 0 1 0.000000 55.339023 34.790000 15.000000
2714 0 1 0.000000 55.339023 36.210000 15.000000
2715 0 1 0.000000 56.568779 36.920000 15.000000
2716 0 2 0.150000 56.568779 38.340000 15.000000
2717 0 2 0.150000 57.798535 39.050000 15.000000
2718 0 1 0.000000 36.892682 0.000000 15.000000
2719 0 1 0.000000 38.122438 0.710000 15.000000
2720 0 1 0.000000 38.122438 2.130000 15.000000
2721 0 1 0.000000 39.352194 2.840000 15.000000
2722 0 1 0.000000 39.352194 4.260000 15.000000
2723 0 1 0.000000 40.581950 4.970000 15.000000
2724 0 1 0.000000 40.581950 6.390000 15.000000
2725 0 1 0.000000 41.811706 7.100000 15.000000
2726 0 1 0.000000 41.811706 8.520000 15.000000
2727 0 1 0.000000 43.041463 9.230000 15.000000
2728 0 1 0.000000 43.041463 10.650000 15.000000
2729 0 1 0.000000 44.271219 11.360000 15.000000
2730 0 1 0.000000 44.271219 12.780000 15.000000
2731 0 1 0.000000 45.500975 13.490000 15.000000
2732 0 1 0.000000 45.500975 14.910000 15.000000
2733 0 1 0.000000 46.730731 15.620000 15.000000
2734 0 1 0.000000 46.730731 17.040000 15.000000
2735 0 2 0.150000 47.960487 17.750000 15.000000
2736 0 1 0.000000 47.960487 19.170000 15.000000
2737 0 1 0.000000 49.190243 19.880000 15.000000
2738 0 1 0.000000 49.190243 21.300000 15.000000
2739 0 1 0.000000 50.419999 22.010000 15.000000
2740 0 1 0.000000 50.419999 23.430000 15.000000
2741 0 1 0.000000 51.649755 24.140000 15.000000
2742 0 1 0.000000 51.649755 25.560000 15.000000
2743 0 1 0.000000 52.879511 26.270000 15.000000
2744 0 1 0.000000 52.879511 27.690000 15.000000
2745 0 1 0.000000 54.109267 28.400000 15.000000
2746 0 1 0.000000 54.109267 29.820000 15.000000
2747 0 1 0.000000 55.339023 30.530000 15.000000
2748 0 1 0.000000 55.339023 31.950000 15.000000
2749 0 2 0.150000 56.568779 32.660000 15.000000
2750 0 1 0.000000 56.568779 34.080000 15.000000
2751 0 1 0.000000 57.798535 34.790000 15.000000
2752 0 1 0.000000 57.798535 36.210000 15.000000
2753 0 1 0.000000 59.028292 36.920000 15.000000
2754 0 1 0.000000 59.028292 38.340000 15.000000
2755 0 1 0.000000 60.258048 39.050000 15.000000
2756 0 1 0.000000 39.352194 0.000000 15.000000
2757 0 1 0.000000 40.581950 0.710000 15.000000
2758 0 1 0.000000 40.581950 2.130000 15.000000
2759 0 1 0.000000 41.811706 2.840000 15.000000
2760 0 1 0.000000 41.811706 4.260000 15.000000
2761 0 1 0.000000 43.041463 4.970000 15.000000
2762 0 1 0.000000 43.041463 6.390000 15.000000
2763 0 1 0.000000 44.271219 7.100000 15.000000
2764 0 1 0.000000 44.271219 8.520000 15.000000
2765 0 1 0.000000 45.500975 9.230000 15.000000
2766 0 1 0.000000 45.500975 10.650000 15.000000
2767 0 1 0.000000 46.730731 11.360000 15.000000
2768 0 2 0.150000 46.730731 12.780000 15.000000
2769 0 1 0.000000 47.960487 13.490000 15.000000
2770 0 1 0.000000 47.960487 14.910000 15.000000
2771 0 1 0.000000 49.190243 15.620000 15.000000
2772 0 1 0.000000 49.190243 17.040000 15.000000
2773 0 1 0.000000 50.419999 17.750000 15.000000
2774 0 2 0.150000 50.419999 19.170000 15.000000
2775 0 1 0.000000 51.649755 19.880000 15.000000
2776 0 1 0.000000 51.649755 21.300000 15.000000
2777 0 1 0.000000 52.879511 22.010000 15.000000
2778 0 1 0.000000 52.879511 23.430000 15.000000
2779 0 1 0.000000 54.109267 24.140000 15.000000
2780 0 1 0.000000 54.109267 25.560000 15.000000
2781 0 1 0.000000 55.339023 26.270000 15.000000
2782 0 1 0.000000 55.339023 27.690000 15.000000
2783 0 1 0.000000 56.568779 28.400000 15.000000
2784 0 1 0.000000 56.568779 29.820000 15.000000
2785 0 1 0.000000 57.798535 30.530000 15.000000
2786 0 1 0.000000 57.798535 31.950000 15.000000
2787 0 1 0.000000 59.028292 32.660000 15.000000
2788 0 1 0.000000 59.028292 34.080000 15.000000
2789 0 1 0.000000 60.258048 34.790000 15.000000
2790 0 1 0.000000 60.258048 36.210000 15.000000
2791 0 1 0.000000 61.487804 36.920000 15.000000
2792 0 1 0.000000 61.487804 38.340000 15.000000
2793 0 1 0.000000 62.717560 39.050000 15.000000
2794 0 1 0.000000 41.811706 0.000000 15.000000
2795 0 1 0.000000 43.041463 0.710000 15.000000
2796 0 1 0.000000 43.041463 2.130000 15.000000
2797 0 1 0.000000 44.271219 2.840000 15.000000
2798 0 1 0.000000 44.271219 4.260000 15.000000
2799 0 1 0.000000 45.500975 4.970000 15.000000
2800 0 1 0.000000 45.500975 6.390000 15.000000
2801 0 1 0.000000 46.730731 7.100000 15.000000
2802 0 1 0.000000 46.730731 8.520000 15.000000
2803 0 1 0.000000 47.960487 9.230000 15.000000
2804 0 1 0.000000 47.960487 10.650000 15.000000
2805 0 1 0.000000 49.190243 11.360000 15.000000
2806 0 1 0.000000 49.190243 12.780000 15.000000
2807 0 1 0.000000 50.419999 13.490000 15.000000
2808 0 1 0.000000 50.419999 14.910000 15.000000
2809 0 1 0.000000 51.649755 15.620000 15.000000
2810 0 1 0.000000 51.649755 17.040000 15.000000
2811 0 1 0.000000 52.879511 17.750000 15.000000
2812 0 1 0.000000 52.879511 19.170000 15.000000
2813 0 1 0.000000 54.109267 19.880000 15.000000
2814 0 1 0.000000 54.109267 21.300000 15.000000
2815 0 1 0.000000 55.339023 22.010000 15.000000
2816 0 2 0.150000 55.339023 23.430000 15.000000
2817 0 1 0.000000 56.568779 24.140000 15.000000
2818 0 1 0.000000 56.568779 25.560000 15.000000
2819 0 1 0.000000 57.798535 26.270000 15.000000
2820 0 1 0.000000 57.798535 27.690000 15.000000
2821 0 1 0.000000 59.028292 28.400000 15.000000
2822 0 1 0.000000 59.028292 29.820000 15.000000
2823 0 1 0.000000 60.258048 30.530000 15.000000
2824 0 1 0.000000 60.258048 31.950000 15.000000
2825 0 1 0.000000 61.487804 32.660000 15.000000
2826 0 1 0.000000 61.487804 34.080000 15.000000
2827 0 2 0.150000 62.717560 34.790000 15.000000
2828 0 1 0.000000 62.717560 36.210000 15.000000
2829 0 2 0.150000 63.947316 36.920000 15.000000
2830 0 1 0.000000 63.947316 38.340000 15.000000
2831 0 1 0.000000 65.177072 39.050000 15.000000
2832 0 1 0.000000 44.271219 0.000000 15.000000
2833 0 1 0.000000 45.500975 0.710000 15.000000
2834 0 1 0.000000 45.500975 2.130000 15.000000
2835 0 1 0.000000 46.730731 2.840000 15.000000
2836 0 1 0.000000 46.730731 4.260000 15.000000
2837 0 1 0.000000 47.960487 4.970000 15.000000
2838 0 2 0.150000 47.960487 6.390000 15.000000
2839 0 1 0.000000 49.190243 7.100000 15.000000
2840 0 1 0.000000 49.190243 8.520000 15.000000
2841 0 1 0.000000 50.419999 9.230000 15.000000
2842 0 1 0.000000 50.419999 10.650000 15.000000
2843 0 1 0.000000 51.649755 11.360000 15.000000
2844 0 1 0.000000 51.649755 12.780000 15.000000
2845 0 1 0.000000 52.879511 13.490000 15.000000
2846 0 1 0.000000 52.879511 14.910000 15.000000
2847 0 2 0.150000 54.109267 15.620000 15.000000
2848 0 2 0.150000 54.109267 17.040000 15.000000
2849 0 1 0.000000 55.339023 17.750000 15.000000
2850 0 1 0.000000 55.339023 19.170000 15.000000
2851 0 1 0.000000 56.568779 19.880000 15.000000
2852 0 2 0.150000 56.568779 21.300000 15.000000
2853 0 1 0.000000 57.798535 22.010000 15.000000
2854 0 1 0.000000 57.798535 23.430000 15.000000
2855 0 2 0.150000 59.028292 24.140000 15.000000
2856 0 1 0.000000 59.028292 25.560000 15.000000
2857 0 1 0.000000 60.258048 26.270000 15.000000
2858 0 1 0.000000 60.258048 27.690000 15.000000
2859 0 1 0.000000 61.487804 28.400000 15.000000
2860 0 1 0.000000 61.487804 29.820000 15.000000
2861 0 1 0.000000 62.717560 30.530000 15.000000
2862 0 1 0.000000 62.717560 31.950000 15.000000
2863 0 1 0.000000 63.947316 32.660000 15.000000
2864 0 1 0.000000 63.947316 34.080000 15.000000
2865 0 1 0.000000 65.177072 34.790000 15.000000
2866 0 1 0.000000 65.177072 36.210000 15.000000
2867 0 1 0.000000 66.406828 36.920000 15.000000
2868 0 1 0.000000 66.406828 38.340000 15.000000
2869 0 2 0.150000 67.636584 39.050000 15.000000
2870 0 1 0.000000 46.730731 0.000000 15.000000
2871 0 1 0.000000 47.960487 0.710000 15.000000
2872 0 1 0.000000 47.960487 2.130000 15.000000
2873 0 1 0.000000 49.190243 2.840000 15.000000
2874 0 1 0.000000 49.190243 4.260000 15.000000
2875 0 1 0.000000 50.419999 4.970000 15.000000
2876 0 1 0.000000 50.419999 6.390000 15.000000
2877 0 1 0.000000 51.649755 7.100000 15.000000
2878 0 1 0.000000 51.649755 8.520000 15.000000
2879 0 1 0.000000 52.879511 9.230000 15.000000
2880 0 1 0.000000 52.879511 10.650000 15.000000
2881 0 2 0.150000 54.109267 11.360000 15.000000
2882 0 1 0.000000 54.109267 12.780000 15.000000
2883 0 1 0.000000 55.339023 13.490000 15.000000
2884 0 1 0.000000 55.339023 14.910000 15.000000
2885 0 1 0.000000 56.568779 15.620000 15.000000
2886 0 1 0.000000 56.568779 17.040000 15.000000
2887 0 2 0.150000 57.798535 17.750000 15.000000
2888 0 1 0.000000 57.798535 19.170000 15.000000
2889 0 1 0.000000 59.028292 19.880000 15.000000
2890 0 1 0.000000 59.028292 21.300000 15.000000
2891 0 1 0.000000 60.258048 22.010000 15.000000
2892 0 1 0.000000 60.258048 23.430000 15.000000
2893 0 2 0.150000 61.487804 24.140000 15.000000
2894 0 1 0.000000 61.487804 25.560000 15.000000
2895 0 1 0.000000 62.717560 26.270000 15.000000
2896 0 1 0.000000 62.717560 27.690000 15.000000
2897 0 1 0.000000 63.947316 28.400000 15.000000
2898 0 1 0.000000 63.947316 29.820000 15.000000
2899 0 1 0.000000 65.177072 30.530000 15.000000
2900 0 1 0.000000 65.177072 31.950000 15.000000
2901 0 2 0.150000 66.406828 32.660000 15.000000
2902 0 1 0.000000 66.406828 34.080000 15.000000
2903 0 2 0.150000 67.636584 34.790000 15.000000
2904 0 1 0.000000 67.636584 36.210000 15.000000
2905 0 1 0.000000 68.866340 36.920000 15.000000
2906 0 1 0.000000 68.866340 38.340000 15.000000
2907 0 1 0.000000 70.096096 39.050000 15.000000
2908 0 1 0.000000 49.190243 0.000000 15.000000
2909 0 1 0.000000 50.419999 0.710000 15.000000
2910 0 1 0.000000 50.419999 2.130000 15.000000
2911 0 1 0.000000 51.649755 2.840000 15.000000
2912 0 1 0.000000 51.649755 4.260000 15.000000
2913 0 1 0.000000 52.879511 4.970000 15.000000
2914 0 1 0.000000 52.879511 6.390000 15.000000
2915 0 1 0.000000 54.109267 7.100000 15.000000
2916 0 1 0.000000 54.109267 8.520000 15.000000
2917 0 1 0.000000 55.339023 9.230000 15.000000
2918 0 1 0.000000 55.339023 10.650000 15.000000
2919 0 1 0.000000 56.568779 11.360000 15.000000
2920 0 1 0.000000 56.568779 12.780000 15.000000
2921 0 1 0.000000 57.798535 13.490000 15.000000
2922 0 1 0.000000 57.798535 14.910000 15.000000
2923 0 1 0.000000 59.028292 15.620000 15.000000
2924 0 1 0.000000 59.028292 17.040000 15.000000
2925 0 2 0.150000 60.258048 17.750000 15.000000
2926 0 1 0.000000 60.258048 19.170000 15.000000
2927 0 1 0.000000 61.487804 19.880000 15.000000
2928 0 1 0.000000 61.487804 21.300000 15.000000
2929 0 1 0.000000 62.717560 22.010000 15.000000
2930 0 1 0.000000 62.717560 23.430000 15.000000
2931 0 1 0.000000 63.947316 24.140000 15.000000
2932 0 1 0.000000 63.947316 25.560000 15.000000
2933 0 1 0.000000 65.177072 26.270000 15.000000
2934 0 2 0.150000 65.177072 27.690000 15.000000
2935 0 1 0.000000 66.406828 28.400000 15.000000
2936 0 1 0.000000 66.406828 29.820000 15.000000
2937 0 1 0.000000 67.636584 30.530000 15.000000
2938 0 1 0.000000 67.636584 31.950000 15.000000
2939 0 1 0.000000 68.866340 32.660000 15.000000
2940 0 1 0.000000 68.866340 34.080000 15.000000
2941 0 1 0.000000 70.096096 34.790000 15.000000
2942 0 1 0.000000 70.096096 36.210000 15.000000
2943 0 1 0.000000 71.325852 36.920000 15.000000
2944 0 1 0.000000 71.325852 38.340000 15.000000
2945 0 1 0.000000 72.555608 39.050000 15.000000
2946 0 1 0.000000 51.649755 0.000000 15.000000
2947 0 1 0.000000 52.879511 0.710000 15.000000
2948 0 1 0.000000 52.879511 2.130000 15.000000
2949 0 1 0.000000 54.109267 2.840000 15.000000
2950 0 1 0.000000 54.109267 4.260000 15.000000
2951 0 1 0.000000 55.339023 4.970000 15.000000
2952 0 1 0.000000 55.339023 6.390000 15.000000
2953 0 1 0.000000 56.568779 7.100000 15.000000
2954 0 2 0.150000 56.568779 8.520000 15.000000
2955 0 1 0.000000 57.798535 9.230000 15.000000
2956 0 1 0.000000 57.798535 10.650000 15.000000
2957 0 1 0.000000 59.028292 11.360000 15.000000
2958 0 1 0.000000 59.028292 12.780000 15.000000
2959 0 1 0.000000 60.258048 13.490000 15.000000
2960 0 1 0.000000 60.258048 14.910000 15.000000
2961 0 2 0.150000 61.487804 15.620000 15.000000
2962 0 1 0.000000 61.487804 17.040000 15.000000
2963 0 1 0.000000 62.717560 17.750000 15.000000
2964 0 2 0.150000 62.717560 19.170000 15.000000
2965 0 1 0.000000 63.947316 19.880000 15.000000
2966 0 1 0.000000 63.947316 21.300000 15.000000
2967 0 1 0.000000 65.177072 22.010000 15.000000
2968 0 1 0.000000 65.177072 23.430000 15.000000
2969 0 1 0.000000 66.406828 24.140000 15.000000
2970 0 1 0.000000 66.406828 25.560000 15.000000
2971 0 1 0.000000 67.636584 26.270000 15.000000
2972 0 2 0.150000 67.636584 27.690000 15.000000
2973 0 1 0.000000 68.866340 28.400000 15.000000
2974 0 1 0.000000 68.866340 29.820000 15.000000
2975 0 1 0.000000 70.096096 30.530000 15.000000
2976 0 1 0.000000 70.096096 31.950000 15.000000
2977 0 1 0.000000 71.325852 32.660000 15.000000
2978 0 1 0.000000 71.325852 34.080000 15.000000
2979 0 1 0.000000 72.555608 34.790000 15.000000
2980 0 1 0.000000 72.555608 36.210000 15.000000
2981 0 1 0.000000 73.785364 36.920000 15.000000
2982 0 1 0.000000 73.785364 38.340000 15.000000
2983 0 1 0.000000 75.015120 39.050000 15.000000
2984 0 1 0.000000 54.109267 0.000000 15.000000
2985 0 1 0.000000 55.339023 0.710000 15.000000
2986 0 1 0.000000 55.339023 2.130000 15.000000
2987 0 1 0.000000 56.568779 2.840000 15.000000
2988 0 1 0.000000 56.568779 4.260000 15.000000
2989 0 1 0.000000 57.798535 4.970000 15.000000
2990 0 1 0.000000 57.798535 6.390000 15.000000
2991 0 2 0.150000 59.028292 7.100000 15.000000
2992 0 1 0.000000 59.028292 8.520000 15.000000
2993 0 1 0.000000 60.258048 9.230000 15.000000
2994 0 1 0.000000 60.258048 10.650000 15.000000
2995 0 1 0.000000 61.487804 11.360000 15.000000
2996 0 1 0.000000 61.487804 12.780000 15.000000
2997 0 1 0.000000 62.717560 13.490000 15.000000
2998 0 2 0.150000 62.717560 14.910000 15.000000
2999 0 1 0.000000 63.947316 15.620000 15.000000
3000 0 1 0.000000 63.947316 17.040000 15.000000
3001 0 2 0.150000 65.177072 17.750000 15.000000
3002 0 1 0.000000 65.177072 19.170000 15.000000
3003 0 1 0.000000 66.406828 19.880000 15.000000
3004 0 1 0.000000 66.406828 21.300000 15.000000
3005 0 1 0.000000 67.636584 22.010000 15.000000
3006 0 1 0.000000 67.636584 23.430000 15.000000
3007 0 1 0.000000 68.866340 24.140000 15.000000
3008 0 1 0.000000 68.866340 25.560000 15.000000
3009 0 1 0.000000 70.096096 26.270000 15.000000
3010 0 2 0.150000 70.096096 27.690000 15.000000
3011 0 1 0.000000 71.325852 28.400000 15.000000
3012 0 1 0.000000 71.325852 29.820000 15.000000
3013 0 1 0.000000 72.555608 30.530000 15.000000
3014 0 1 0.000000 72.555608 31.950000 15.000000
3015 0 1 0.000000 73.785364 32.660000 15.000000
3016 0 1 0.000000 73.785364 34.080000 15.000000
3017 0 1 0.000000 75.015120 34.790000 15.000000
3018 0 1 0.000000 75.015120 36.210000 15.000000
3019 0 1 0.000000 76.244877 36.920000 15.000000
3020 0 2 0.150000 76.244877 38.340000 15.000000
3021 0 1 0.000000 77.474633 39.050000 15.000000
3022 0 2 0.150000 56.568779 0.000000 15.000000
3023 0 1 0.000000 57.798535 0.710000 15.000000
3024 0 1 0.000000 57.798535 2.130000 15.000000
3025 0 1 0.000000 59.028292 2.840000 15.000000
3026 0 1 0.000000 59.028292 4.260000 15.000000
3027 0 1 0.000000 60.258048 4.970000 15.000000
3028 0 1 0.000000 60.258048 6.390000 15.000000
3029 0 2 0.150000 61.487804 7.100000 15.000000
3030 0 1 0.000000 61.487804 8.520000 15.000000
3031 0 2 0.150000 62.717560 9.230000 15.000000
3032 0 1 0.000000 62.717560 10.650000 15.000000
3033 0 1 0.000000 63.947316 11.360000 15.000000
3034 0 1 0.000000 63.947316 12.780000 15.000000
3035 0 1 0.000000 65.177072 13.490000 15.000000
3036 0 1 0.000000 65.177072 14.910000 15.000000
3037 0 1 0.000000 66.406828 15.620000 15.000000
3038 0 1 0.000000 66.406828 17.040000 15.000000
3039 0 1 0.000000 67.636584 17.750000 15.000000
3040 0 2 0.150000 67.636584 19.170000 15.000000
3041 0 1 0.000000 68.866340 19.880000 15.000000
3042 0 1 0.000000 68.866340 21.300000 15.000000
3043 0 1 0.000000 70.096096 22.010000 15.000000
3044 0 1 0.000000 70.096096 23.430000 15.000000
3045 0 1 0.000000 71.325852 24.140000 15.000000
3046 0 1 0.000000 71.325852 25.560000 15.000000
3047 0 1 0.000000 72.555608 26.270000 15.000000
3048 0 1 0.000000 72.555608 27.690000 15.000000
3049 0 1 0.000000 73.785364 28.400000 15.000000
3050 0 2 0.150000 73.785364 29.820000 15.000000
3051 0 1 0.000000 75.015120 30.530000 15.000000
3052 0 1 0.000000 75.015120 31.950000 15.000000
3053 0 2 0.150000 76.244877 32.660000 15.000000
3054 0 1 0.000000 76.244877 34.080000 15.000000
3055 0 1 0.000000 77.474633 34.790000 15.000000
3056 0 1 0.000000 77.474633 36.210000 15.000000
3057 0 1 0.000000 78.704389 36.920000 15.000000
3058 0 1 0.000000 78.704389 38.340000 15.000000
3059 0 1 0.000000 79.934145 39.050000 15.000000
3060 0 1 0.000000 59.028292 0.000000 15.000000
3061 0 1 0.000000 60.258048 0.710000 15.000000
3062 0 2 0.150000 60.258048 2.130000 15.000000
3063 0 1 0.000000 61.487804 2.840000 15.000000
3064 0 1 0.000000 61.487804 4.260000 15.000000
3065 0 1 0.000000 62.717560 4.970000 15.000000
3066 0 1 0.000000 62.717560 6.390000 15.000000
3067 0 1 0.000000 63.947316 7.100000 15.000000
3068 0 1 0.000000 63.947316 8.520000 15.000000
3069 0 2 0.150000 65.177072 9.230000 15.000000
3070 0 1 0.000000 65.177072 10.650000 15.000000
3071 0 1 0.000000 66.406828 11.360000 15.000000
3072 0 2 0.150000 66.406828 12.780000 15.000000
3073 0 1 0.000000 67.636584 13.490000 15.000000
3074 0 1 0.000000 67.636584 14.910000 15.000000
3075 0 1 0.000000 68.866340 15.620000 15.000000
3076 0 1 0.000000 68.866340 17.040000 15.000000
3077 0 1 0.000000 70.096096 17.750000 15.000000
3078 0 1 0.000000 70.096096 19.170000 15.000000
3079 0 2 0.150000 71.325852 19.880000 15.000000
3080 0 2 0.150000 71.325852 21.300000 15.000000
3081 0 1 0.000000 72.555608 22.010000 15.000000
3082 0 1 0.000000 72.555608 23.430000 15.000000
3083 0 2 0.150000 73.785364 24.140000 15.000000
3084 0 1 0.000000 73.785364 25.560000 15.000000
3085 0 1 0.000000 75.015120 26.270000 15.000000
3086 0 1 0.000000 75.015120 27.690000 15.000000
3087 0 1 0.000000 76.244877 28.400000 15.000000
3088 0 1 0.000000 76.244877 29.820000 15.000000
3089 0 2 0.150000 77.474633 30.530000 15.000000
3090 0 1 0.000000 77.474633 31.950000 15.000000
3091 0 1 0.000000 78.704389 32.660000 15.000000
3092 0 1 0.000000 78.704389 34.080000 15.000000
3093 0 1 0.000000 79.934145 34.790000 15.000000
3094 0 1 0.000000 79.934145 36.210000 15.000000
3095 0 1 0.000000 81.163901 36.920000 15.000000
3096 0 1 0.000000 81.163901 38.340000 15.000000
3097 0 1 0.000000 82.393657 39.050000 15.000000
3098 0 1 0.000000 61.487804 0.000000 15.000000
3099 0 1 0.000000 62.717560 0.710000 15.000000
3100 0 1 0.000000 62.717560 2.130000 15.000000
3101 0 1 0.000000 63.947316 2.840000 15.000000
3102 0 1 0.000000 63.947316 4.260000 15.000000
3103 0 2 0.150000 65.177072 4.970000 15.000000
3104 0 1 0.000000 65.177072 6.390000 15.000000
3105 0 1 0.000000 66.406828 7.100000 15.000000
3106 0 1 0.000000 66.406828 8.520000 15.000000
3107 0 1 0.000000 67.636584 9.230000 15.000000
3108 0 1 0.000000 67.636584 10.650000 15.000000
3109 0 1 0.000000 68.866340 11.360000 15.000000
3110 0 1 0.000000 68.866340 12.780000 15.000000
3111 0 1 0.000000 70.096096 13.490000 15.000000
3112 0 1 0.000000 70.096096 14.910000 15.000000
3113 0 1 0.000000 71.325852 15.620000 15.000000
3114 0 1 0.000000 71.325852 17.040000 15.000000
3115 0 2 0.150000 72.555608 17.750000 15.000000
3116 0 1 0.000000 72.555608 19.170000 15.000000
3117 0 1 0.000000 73.785364 19.880000 15.000000
3118 0 2 0.150000 73.785364 21.300000 15.000000
3119 0 1 0.000000 75.015120 22.010000 15.000000
3120 0 2 0.150000 75.015120 23.430000 15.000000
3121 0 1 0.000000 76.244877 24.140000 15.000000
3122 0 1 0.000000 76.244877 25.560000 15.000000
3123 0 1 0.000000 77.474633 26.270000 15.000000
3124 0 1 0.000000 77.474633 27.690000 15.000000
3125 0 1 0.000000 78.704389 28.400000 15.000000
3126 0 2 0.150000 78.704389 29.820000 15.000000
3127 0 1 0.000000 79.934145 30.530000 15.000000
3128 0 1 0.000000 79.934145 31.950000 15.000000
3129 0 1 0.000000 81.163901 32.660000 15.000000
3130 0 1 0.000000 81.163901 34.080000 15.000000
3131 0 2 0.150000 82.393657 34.790000 15.000000
3132 0 1 0.000000 82.393657 36.210000 15.000000
3133 0 1 0.000000 83.623413 36.920000 15.000000
3134 0 1 0.000000 83.623413 38.340000 15.000000
3135 0 1 0.000000 84.853169 39.050000 15.000000
3136 0 1 0.000000 63.947316 0.000000 15.000000
3137 0 1 0.000000 65.177072 0.710000 15.000000
3138 0 1 0.000000 65.177072 2.130000 15.000000
3139 0 1 0.000000 66.406828 2.840000 15.000000
3140 0 1 0.000000 66.406828 4.260000 15.000000
3141 0 1 0.000000 67.636584 4.970000 15.000000
3142 0 2 0.150000 67.636584 6.390000 15.000000
3143 0 1 0.000000 68.866340 7.100000 15.000000
3144 0 1 0.000000 68.866340 8.520000 15.000000
3145 0 1 0.000000 70.096096 9.230000 15.000000
3146 0 1 0.000000 70.096096 10.650000 15.000000
3147 0 2 0.150000 71.325852 11.360000 15.000000
3148 0 2 0.150000 71.325852 12.780000 15.000000
3149 0 1 0.000000 72.555608 13.490000 15.000000
3150 0 1 0.000000 72.555608 14.910000 15.000000
3151 0 1 0.000000 73.785364 15.620000 15.000000
3152 0 1 0.000000 73.785364 17.040000 15.000000
3153 0 1 0.000000 75.015120 17.750000 15.000000
3154 0 1 0.000000 75.015120 19.170000 15.000000
3155 0 1 0.000000 76.244877 19.880000 15.000000
3156 0 1 0.000000 76.244877 21.300000 15.000000
3157 0 1 0.000000 77.474633 22.010000 15.000000
3158 0 1 0.000000 77.474633 23.430000 15.000000
3159 0 1 0.000000 78.704389 24.140000 15.000000
3160 0 1 0.000000 78.704389 25.560000 15.000000
3161 0 1 0.000000 79.934145 26.270000 15.000000
3162 0 1 0.000000 79.934145 27.690000 15.000000
3163 0 1 0.000000 81.163901 28.400000 15.000000
3164 0 1 0.000000 81.163901 29.820000 15.000000
3165 0 1 0.000000 82.393657 30.530000 15.000000
3166 0 1 0.000000 82.393657 31.950000 15.000000
3167 0 1 0.000000 83.623413 32.660000 15.000000
3168 0 1 0.000000 83.623413 34.080000 15.000000
3169 0 1 0.000000 84.853169 34.790000 15.000000
3170 0 1 0.000000 84.853169 36.210000 15.000000
3171 0 1 0.000000 86.082925 36.920000 15.000000
3172 0 1 0.000000 86.082925 38.340000 15.000000
3173 0 1 0.000000 87.312681 39.050000 15.000000
3174 0 1 0.000000 66.406828 0.000000 15.000000
3175 0 1 0.000000 67.636584 0.710000 15.000000
3176 0 1 0.000000 67.636584 2.130000 15.000000
3177 0 2 0.150000 68.866340 2.840000 15.000000
3178 0 1 0.000000 68.866340 4.260000 15.000000
3179 0 1 0.000000 70.096096 4.970000 15.000000
3180 0 2 0.150000 70.096096 6.390000 15.000000
3181 0 2 0.150000 71.325852 7.100000 15.000000
3182 0 1 0.000000 71.325852 8.520000 15.000000
3183 0 2 0.150000 72.555608 9.230000 15.000000
3184 0 1 0.000000 72.555608 10.650000 15.000000
3185 0 1 0.000000 73.785364 11.360000 15.000000
3186 0 1 0.000000 73.785364 12.780000 15.000000
3187 0 1 0.000000 75.015120 13.490000 15.000000
3188 0 1 0.000000 75.015120 14.910000 15.000000
3189 0 1 0.000000 76.244877 15.620000 15.000000
3190 0 1 0.000000 76.244877 17.040000 15.000000
3191 0 1 0.000000 77.474633 17.750000 15.000000
3192 0 2 0.150000 77.474633 19.170000 15.000000
3193 0 1 0.000000 78.704389 19.880000 15.000000
3194 0 1 0.000000 78.704389 21.300000 15.000000
3195 0 1 0.000000 79.934145 22.010000 15.000000
3196 0 1 0.000000 79.934145 23.430000 15.000000
3197 0 1 0.000000 81.163901 24.140000 15.000000
3198 0 2 0.150000 81.163901 25.560000 15.000000
3199 0 1 0.000000 82.393657 26.270000 15.000000
3200 0 1 0.000000 82.393657 27.690000 15.000000
3201 0 1 0.000000 83.623413 28.400000 15.000000
3202 0 1 0.000000 83.623413 29.820000 15.000000
3203 0 1 0.000000 84.853169 30.530000 15.000000
3204 0 1 0.000000 84.853169 31.950000 15.000000
3205 0 1 0.000000 86.082925 32.660000 15.000000
3206 0 1 0.000000 86.082925 34.080000 15.000000
3207 0 1 0.000000 87.312681 34.790000 15.000000
3208 0 1 0.000000 87.312681 36.210000 15.000000
3209 0 1 0.000000 88.542437 36.920000 15.000000
3210 0 1 0.000000 88.542437 38.340000 15.000000
3211 0 1 0.000000 89.772193 39.050000 15.000000
3212 0 1 0.000000 68.866340 0.000000 15.000000
3213 0 1 0.000000 70.096096 0.710000 15.000000
3214 0 1 0.000000 70.096096 2.130000 15.000000
3215 0 1 0.000000 71.325852 2.840000 15.000000
3216 0 1 0.000000 71.325852 4.260000 15.000000
3217 0 1 0.000000 72.555608 4.970000 15.000000
3218 0 1 0.000000 72.555608 6.390000 15.000000
3219 0 1 0.000000 73.785364 7.100000 15.000000
3220 0 1 0.000000 73.785364 8.520000 15.000000
3221 0 1 0.000000 75.015120 9.230000 15.000000
3222 0 2 0.150000 75.015120 10.650000 15.000000
3223 0 1 0.000000 76.244877 11.360000 15.000000
3224 0 1 0.000000 76.244877 12.780000 15.000000
3225 0 1 0.000000 77.474633 13.490000 15.000000
3226 0 1 0.000000 77.474633 14.910000 15.000000
3227 0 1 0.000000 78.704389 15.620000 15.000000
3228 0 1 0.000000 78.704389 17.040000 15.000000
3229 0 1 0.000000 79.934145 17.750000 15.000000
3230 0 1 0.000000 79.934145 19.170000 15.000000
3231 0 1 0.000000 81.163901 19.880000 15.000000
3232 0 2 0.150000 81.163901 21.300000 15.000000
3233 0 2 0.150000 82.393657 22.010000 15.000000
3234 0 1 0.000000 82.393657 23.430000 15.000000
3235 0 1 0.000000 83.623413 24.140000 15.000000
3236 0 1 0.000000 83.623413 25.560000 15.000000
3237 0 1 0.000000 84.853169 26.270000 15.000000
3238 0 1 0.000000 84.853169 27.690000 15.000000
3239 0 1 0.000000 86.082925 28.400000 15.000000
3240 0 1 0.000000 86.082925 29.820000 15.000000
3241 0 1 0.000000 87.312681 30.530000 15.000000
3242 0 2 0.150000 87.312681 31.950000 15.000000
3243 0 1 0.000000 88.542437 32.660000 15.000000
3244 0 1 0.000000 88.542437 34.080000 15.000000
3245 0 1 0.000000 89.772193 34.790000 15.000000
3246 0 2 0.150000 89.772193 36.210000 15.000000
3247 0 1 0.000000 91.001949 36.920000 15.000000
3248 0 2 0.150000 91.001949 38.340000 15.000000
3249 0 1 0.000000 92.231706 39.050000 15.000000
3250 0 1 0.000000 71.325852 0.000000 15.000000
3251 0 1 0.000000 72.555608 0.710000 15.000000
3252 0 1 0.000000 72.555608 2.130000 15.000000
3253 0 1 0.000000 73.785364 2.840000 15.000000
3254 0 1 0.000000 73.785364 4.260000 15.000000
3255 0 1 0.000000 75.015120 4.970000 15.000000
3256 0 1 0.000000 75.015120 6.390000 15.000000
3257 0 1 0.000000 76.244877 7.100000 15.000000
3258 0 1 0.000000 76.244877 8.520000 15.000000
3259 0 1 0.000000 77.474633 9.230000 15.000000
3260 0 2 0.150000 77.474633 10.650000 15.000000
3261 0 1 0.000000 78.704389 11.360000 15.000000
3262 0 1 0.000000 78.704389 12.780000 15.000000
3263 0 1 0.000000 79.934145 13.490000 15.000000
3264 0 1 0.000000 79.934145 14.910000 15.000000
3265 0 1 0.000000 81.163901 15.620000 15.000000
3266 0 1 0.000000 81.163901 17.040000 15.000000
3267 0 1 0.000000 82.393657 17.750000 15.000000
3268 0 1 0.000000 82.393657 19.170000 15.000000
3269 0 1 0.000000 83.623413 19.880000 15.000000
3270 0 1 0.000000 83.623413 21.300000 15.000000
3271 0 1 0.000000 84.853169 22.010000 15.000000
3272 0 1 0.000000 84.853169 23.430000 15.000000
3273 0 1 0.000000 86.082925 24.140000 15.000000
3274 0 1 0.000000 86.082925 25.560000 15.000000
3275 0 1 0.000000 87.312681 26.270000 15.000000
3276 0 1 0.000000 87.312681 27.690000 15.000000
3277 0 1 0.000000 88.542437 28.400000 15.000000
3278 0 1 0.000000 88.542437 29.820000 15.000000
3279 0 1 0.000000 89.772193 30.530000 15.000000
3280 0 1 0.000000 89.772193 31.950000 15.000000
3281 0 1 0.000000 91.001949 32.660000 15.000000
3282 0 1 0.000000 91.001949 34.080000 15.000000
3283 0 1 0.000000 92.231706 34.790000 15.000000
3284 0 1 0.000000 92.231706 36.210000 15.000000
3285 0 1 0.000000 93.461462 36.920000 15.000000
3286 0 1 0.000000 93.461462 38.340000 15.000000
3287 0 1 0.000000 94.691218 39.050000 15.000000
3288 0 1 0.000000 73.785364 0.000000 15.000000
3289 0 1 0.000000 75.015120 0.710000 15.000000
3290 0 1 0.000000 75.015120 2.130000 15.000000
3291 0 1 0.000000 76.244877 2.840000 15.000000
3292 0 1 0.000000 76.244877 4.260000 15.000000
3293 0 1 0.000000 77.474633 4.970000 15.000000
3294 0 1 0.000000 77.474633 6.390000 15.000000
3295 0 1 0.000000 78.704389 7.100000 15.000000
3296 0 2 0.150000 78.704389 8.520000 15.000000
3297 0 1 0.000000 79.934145 9.230000 15.000000
3298 0 1 0.000000 79.934145 10.650000 15.000000
3299 0 1 0.000000 81.163901 11.360000 15.000000
3300 0 1 0.000000 81.163901 12.780000 15.000000
3301 0 1 0.000000 82.393657 13.490000 15.000000
3302 0 1 0.000000 82.393657 14.910000 15.000000
3303 0 1 0.000000 83.623413 15.620000 15.000000
3304 0 1 0.000000 83.623413 17.040000 15.000000
3305 0 1 0.000000 84.853169 17.750000 15.000000
3306 0 1 0.000000 84.853169 19.170000 15.000000
3307 0 1 0.000000 86.082925 19.880000 15.000000
3308 0 1 0.000000 86.082925 21.300000 15.000000
3309 0 1 0.000000 87.312681 22.010000 15.000000
3310 0 1 0.000000 87.312681 23.430000 15.000000
3311 0 1 0.000000 88.542437 24.140000 15.000000
3312 0 1 0.000000 88.542437 25.560000 15.000000
3313 0 1 0.000000 89.772193 26.270000 15.000000
3314 0 1 0.000000 89.772193 27.690000 15.000000
3315 0 1 0.000000 91.001949 28.400000 15.000000
3316 0 2 0.150000 91.001949 29.820000 15.000000
3317 0 1 0.000000 92.231706 30.530000 15.000000
3318 0 2 0.150000 92.231706 31.950000 15.000000
3319 0 1 0.000000 93.461462 32.660000 15.000000
3320 0 1 0.000000 93.461462 34.080000 15.000000
3321 0 1 0.000000 94.691218 34.790000 15.000000
3322 0 1 0.000000 94.691218 36.210000 15.000000
3323 0 2 0.150000 95.920974 36.920000 15.000000
3324 0 1 0.000000 95.920974 38.340000 15.000000
3325 0 1 0.000000 97.150730 39.050000 15.000000
3326 0 1 0.000000 76.244877 0.000000 15.000000
3327 0 1 0.000000 77.474633 0.710000 15.000000
3328 0 1 0.000000 77.474633 2.130000 15.000000
3329 0 1 0.000000 78.704389 2.840000 15.000000
3330 0 1 0.000000 78.704389 4.260000 15.000000
3331 0 1 0.000000 79.934145 4.970000 15.000000
3332 0 2 0.150000 79.934145 6.390000 15.000000
3333 0 1 0.000000 81.163901 7.100000 15.000000
3334 0 1 0.000000 81.163901 8.520000 15.000000
3335 0 1 0.000000 82.393657 9.230000 15.000000
3336 0 1 0.000000 82.393657 10.650000 15.000000
3337 0 1 0.000000 83.623413 11.360000 15.000000
3338 0 1 0.000000 83.623413 12.780000 15.000000
3339 0 2 0.150000 84.853169 13.490000 15.000000
3340 0 1 0.000000 84.853169 14.910000 15.000000
3341 0 1 0.000000 86.082925 15.620000 15.000000
3342 0 1 0.000000 86.082925 17.040000 15.000000
3343 0 1 0.000000 87.312681 17.750000 15.000000
3344 0 1 0.000000 87.312681 19.170000 15.000000
3345 0 1 0.000000 88.542437 19.880000 15.000000
3346 0 1 0.000000 88.542437 21.300000 15.000000
3347 0 2 0.150000 89.772193 22.010000 15.000000
3348 0 1 0.000000 89.772193 23.430000 15.000000
3349 0 1 0.000000 91.001949 24.140000 15.000000
3350 0 1 0.000000 91.001949 25.560000 15.000000
3351 0 1 0.000000 92.231706 26.270000 15.000000
3352 0 1 0.000000 92.231706 27.690000 15.000000
3353 0 1 0.000000 93.461462 28.400000 15.000000
3354 0 1 0.000000 93.461462 29.820000 15.000000
3355 0 1 0.000000 94.691218 30.530000 15.000000
3356 0 1 0.000000 94.691218 31.950000 15.000000
3357 0 1 0.000000 95.920974 32.660000 15.000000
3358 0 1 0.000000 95.920974 34.080000 15.000000
3359 0 1 0.000000 97.150730 34.790000 15.000000
3360 0 1 0.000000 97.150730 36.210000 15.000000
3361 0 1 0.000000 98.380486 36.920000 15.000000
3362 0 1 0.000000 98.380486 38.340000 15.000000
3363 0 1 0.000000 99.610242 39.050000 15.000000
3364 0 1 0.000000 78.704389 0.000000 15.000000
3365 0 1 0.000000 79.934145 0.710000 15.000000
3366 0 1 0.000000 79.934145 2.130000 15.000000
3367 0 1 0.000000 81.163901 2.840000 15.000000
3368 0 1 0.000000 81.163901 4.260000 15.000000
3369 0 1 0.000000 82.393657 4.970000 15.000000
3370 0 1 0.000000 82.393657 6.390000 15.000000
3371 0 1 0.000000 83.623413 7.100000 15.000000
3372 0 1 0.000000 83.623413 8.520000 15.000000
3373 0 1 0.000000 84.853169 9.230000 15.000000
3374 0 1 0.000000 84.853169 10.650000 15.000000
3375 0 1 0.000000 86.082925 11.360000 15.000000
3376 0 1 0.000000 86.082925 12.780000 15.000000
3377 0 1 0.000000 87.312681 13.490000 15.000000
3378 0 1 0.000000 87.312681 14.910000 15.000000
3379 0 1 0.000000 88.542437 15.620000 15.000000
3380 0 1 0.000000 88.542437 17.040000 15.000000
3381 0 1 0.000000 89.772193 17.750000 15.000000
3382 0 2 0.150000 89.772193 19.170000 15.000000
3383 0 2 0.150000 91.001949 19.880000 15.000000
3384 0 1 0.000000 91.001949 21.300000 15.000000
3385 0 1 0.000000 92.231706 22.010000 15.000000
3386 0 1 0.000000 92.231706 23.430000 15.000000
3387 0 1 0.000000 93.461462 24.140000 15.000000
3388 0 1 0.000000 93.461462 25.560000 15.000000
3389 0 1 0.000000 94.691218 26.270000 15.000000
3390 0 1 0.000000 94.691218 27.690000 15.000000
3391 0 1 0.000000 95.920974 28.400000 15.000000
3392 0 1 0.000000 95.920974 29.820000 15.000000
3393 0 2 0.150000 97.150730 30.530000 15.000000
3394 0 2 0.150000 97.150730 31.950000 15.000000
3395 0 1 0.000000 98.380486 32.660000 15.000000
3396 0 1 0.000000 98.380486 34.080000 15.000000
3397 0 1 0.000000 99.610242 34.790000 15.000000
3398 0 1 0.000000 99.610242 36.210000 15.000000
3399 0 1 0.000000 100.839998 36.920000 15.000000
3400 0 1 0.000000 100.839998 38.340000 15.000000
3401 0 1 0.000000 102.069754 39.050000 15.000000
3402 0 1 0.000000 81.163901 0.000000 15.000000
3403 0 1 0.000000 82.393657 0.710000 15.000000
3404 0 1 0.000000 82.393657 2.130000 15.000000
3405 0 2 0.150000 83.623413 2.840000 15.000000
3406 0 1 0.000000 83.623413 4.260000 15.000000
3407 0 1 0.000000 84.853169 4.970000 15.000000
3408 0 1 0.000000 84.853169 6.390000 15.000000
3409 0 2 0.150000 86.082925 7.100000 15.000000
3410 0 2 0.150000 86.082925 8.520000 15.000000
3411 0 1 0.000000 87.312681 9.230000 15.000000
3412 0 1 0.000000 87.312681 10.650000 15.000000
3413 0 1 0.000000 88.542437 11.360000 15.000000
3414 0 1 0.000000 88.542437 12.780000 15.000000
3415 0 1 0.000000 89.772193 13.490000 15.000000
3416 0 1 0.000000 89.772193 14.910000 15.000000
3417 0 1 0.000000 91.001949 15.620000 15.000000
3418 0 1 0.000000 91.001949 17.040000 15.000000
3419 0 1 0.000000 92.231706 17.750000 15.000000
3420 0 1 0.000000 92.231706 19.170000 15.000000
3421 0 1 0.000000 93.461462 19.880000 15.000000
3422 0 1 0.000000 93.461462 21.300000 15.000000
3423 0 2 0.150000 94.691218 22.010000 15.000000
3424 0 1 0.000000 94.691218 23.430000 15.000000
3425 0 1 0.000000 95.920974 24.140000 15.000000
3426 0 1 0.000000 95.920974 25.560000 15.000000
3427 0 1 0.000000 97.150730 26.270000 15.000000
3428 0 1 0.000000 97.150730 27.690000 15.000000
3429 0 1 0.000000 98.380486 28.400000 15.000000
3430 0 1 0.000000 98.380486 29.820000 15.000000
3431 0 1 0.000000 99.610242 30.530000 15.000000
3432 0 1 0.000000 99.610242 31.950000 15.000000
3433 0 1 0.000000 100.839998 32.660000 15.000000
3434 0 1 0.000000 100.839998 34.080000 15.000000
3435 0 1 0.000000 102.069754 34.790000 15.000000
3436 0 1 0.000000 102.069754 36.210000 15.000000
3437 0 1 0.000000 103.299510 36.920000 15.000000
3438 0 1 0.000000 103.299510 38.340000 15.000000
3439 0 1 0.000000 104.529266 39.050000 15.000000
3440 0 2 0.150000 83.623413 0.000000 15.000000
3441 0 1 0.000000 84.853169 0.710000 15.000000
3442 0 1 0.000000 84.853169 2.130000 15.000000
3443 0 1 0.000000 86.082925 2.840000 15.000000
3444 0 1 0.000000 86.082925 4.260000 15.000000
3445 0 1 0.000000 87.312681 4.970000 15.000000
3446 0 1 0.000000 87.312681 6.390000 15.000000
3447 0 1 0.000000 88.542437 7.100000 15.000000
3448 0 1 0.000000 88.542437 8.520000 15.000000
3449 0 1 0.000000 89.772193 9.230000 15.000000
3450 0 1 0.000000 89.772193 10.650000 15.000000
3451 0 1 0.000000 91.001949 11.360000 15.000000
3452 0 1 0.000000 91.001949 12.780000 15.000000
3453 0 1 0.000000 92.231706 13.490000 15.000000
3454 0 1 0.000000 92.231706 14.910000 15.000000
3455 0 1 0.000000 93.461462 15.620000 15.000000
3456 0 1 0.000000 93.461462 17.040000 15.000000
3457 0 1 0.000000 94.691218 17.750000 15.000000
3458 0 1 0.000000 94.691218 19.170000 15.000000
3459 0 1 0.000000 95.920974 19.880000 15.000000
3460 0 1 0.000000 95.920974 21.300000 15.000000
3461 0 1 0.000000 97.150730 22.010000 15.000000
3462 0 1 0.000000 97.150730 23.430000 15.000000
3463 0 1 0.000000 98.380486 24.140000 15.000000
3464 0 1 0.000000 98.380486 25.560000 15.000000
3465 0 1 0.000000 99.610242 26.270000 15.000000
3466 0 1 0.000000 99.610242 27.690000 15.000000
3467 0 1 0.000000 100.839998 28.400000 15.000000
3468 0 1 0.000000 100.839998 29.820000 15.000000
3469 0 1 0.000000 102.069754 30.530000 15.000000
3470 0 1 0.000000 102.069754 31.950000 15.000000
3471 0 1 0.000000 103.299510 32.660000 15.000000
3472 0 1 0.000000 103.299510 34.080000 15.000000
3473 0 1 0.000000 104.529266 34.790000 15.000000
3474 0 1 0.000000 104.529266 36.210000 15.000000
3475 0 1 0.000000 105.759022 36.920000 15.000000
3476 0 1 0.000000 105.759022 38.340000 15.000000
3477 0 1 0.000000 106.988778 39.050000 15.000000
3478 0 1 0.000000 86.082925 0.000000 15.000000
3479 0 1 0.000000 87.312681 0.710000 15.000000
3480 0 1 0.000000 87.312681 2.130000 15.000000
3481 0 1 0.000000 88.542437 2.840000 15.000000
3482 0 1 0.000000 88.542437 4.260000 15.000000
3483 0 1 0.000000 89.772193 4.970000 15.000000
3484 0 1 0.000000 89.772193 6.390000 15.000000
3485 0 1 0.000000 91.001949 7.100000 15.000000
3486 0 1 0.000000 91.001949 8.520000 15.000000
3487 0 1 0.000000 92.231706 9.230000 15.000000
3488 0 1 0.000000 92.231706 10.650000 15.000000
3489 0 2 0.150000 93.461462 11.360000 15.000000
3490 0 1 0.000000 93.461462 12.780000 15.000000
3491 0 1 0.000000 94.691218 13.490000 15.000000
3492 0 2 0.150000 94.691218 14.910000 15.000000
3493 0 1 0.000000 95.920974 15.620000 15.000000
3494 0 1 0.000000 95.920974 17.040000 15.000000
3495 0 1 0.000000 97.150730 17.750000 15.000000
3496 0 1 0.000000 97.150730 19.170000 15.000000
3497 0 1 0.000000 98.380486 19.880000 15.000000
3498 0 1 0.000000 98.380486 21.300000 15.000000
3499 0 1 0.000000 99.610242 22.010000 15.000000
3500 0 1 0.000000 99.610242 23.430000 15.000000
3501 0 1 0.000000 100.839998 24.140000 15.000000
3502 0 1 0.000000 100.839998 25.560000 15.000000
3503 0 1 0.000000 102.069754 26.270000 15.000000
3504 0 1 0.000000 102.069754 27.690000 15.000000
3505 0 2 0.150000 103.299510 28.400000 15.000000
3506 0 1 0.000000 103.299510 29.820000 15.000000
3507 0 1 0.000000 104.529266 30.530000 15.000000
3508 0 1 0.000000 104.529266 31.950000 15.000000
3509 0 1 0.000000 105.759022 32.660000 15.000000
3510 0 2 0.150000 105.759022 34.080000 15.000000
3511 0 1 0.000000 106.988778 34.790000 15.000000
3512 0 1 0.000000 106.988778 36.210000 15.000000
3513 0 1 0.000000 108.218534 36.920000 15.000000
3514 0 1 0.000000 108.218534 38.340000 15.000000
3515 0 1 0.000000 109.448291 39.050000 15.000000
3516 0 1 0.000000 88.542437 0.000000 15.000000
3517 0 2 0.150000 89.772193 0.710000 15.000000
3518 0 1 0.000000 89.772193 2.130000 15.000000
3519 0 1 0.000000 91.001949 2.840000 15.000000
3520 0 1 0.000000 91.001949 4.260000 15.000000
3521 0 1 0.000000 92.231706 4.970000 15.000000
3522 0 2 0.150000 92.231706 6.390000 15.000000
3523 0 1 0.000000 93.461462 7.100000 15.000000
3524 0 1 0.000000 93.461462 8.520000 15.000000
3525 0 1 0.000000 94.691218 9.230000 15.000000
3526 0 1 0.000000 94.691218 10.650000 15.000000
3527 0 1 0.000000 95.920974 11.360000 15.000000
3528 0 1 0.000000 95.920974 12.780000 15.000000
3529 0 1 0.000000 97.150730 13.490000 15.000000
3530 0 1 0.000000 97.150730 14.910000 15.000000
3531 0 1 0.000000 98.380486 15.620000 15.000000
3532 0 1 0.000000 98.380486 17.040000 15.000000
3533 0 1 0.000000 99.610242 17.750000 15.000000
3534 0 1 0.000000 99.610242 19.170000 15.000000
3535 0 1 0.000000 100.839998 19.880000 15.000000
3536 0 1 0.000000 100.839998 21.300000 15.000000
3537 0 1 0.000000 102.069754 22.010000 15.000000
3538 0 1 0.000000 102.069754 23.430000 15.000000
3539 0 1 0.000000 103.299510 24.140000 15.000000
3540 0 1 0.000000 103.299510 25.560000 15.000000
3541 0 1 0.000000 104.529266 26.270000 15.000000
3542 0 1 0.000000 104.529266 27.690000 15.000000
3543 0 1 0.000000 105.759022 28.400000 15.000000
3544 0 1 0.000000 105.759022 29.820000 15.000000
3545 0 2 0.150000 106.988778 30.530000 15.000000
3546 0 1 0.000000 106.988778 31.950000 15.000000
3547 0 1 0.000000 108.218534 32.660000 15.000000
3548 0 1 0.000000 108.218534 34.080000 15.000000
3549 0 1 0.000000 109.448291 34.790000 15.000000
3550 0 1 0.000000 109.448291 36.210000 15.000000
3551 0 1 0.000000 110.678047 36.920000 15.000000
3552 0 2 0.150000 110.678047 38.340000 15.000000
3553 0 1 0.000000 111.907803 39.050000 15.000000
3554 0 1 0.000000 91.001949 0.000000 15.000000
3555 0 1 0.000000 92.231706 0.710000 15.000000
3556 0 1 0.000000 92.231706 2.130000 15.000000
3557 0 1 0.000000 93.461462 2.840000 15.000000
3558 0 1 0.000000 93.461462 4.260000 15.000000
3559 0 1 0.000000 94.691218 4.970000 15.000000
3560 0 1 0.000000 94.691218 6.390000 15.000000
3561 0 1 0.000000 95.920974 7.100000 15.000000
3562 0 1 0.000000 95.920974 8.520000 15.000000
3563 0 1 0.000000 97.150730 9.230000 15.000000
3564 0 1 0.000000 97.150730 10.650000 15.000000
3565 0 1 0.000000 98.380486 11.360000 15.000000
3566 0 1 0.000000 98.380486 12.780000 15.000000
3567 0 1 0.000000 99.610242 13.490000 15.000000
3568 0 1 0.000000 99.610242 14.910000 15.000000
3569 0 1 0.000000 100.839998 15.620000 15.000000
3570 0 1 0.000000 100.839998 17.040000 15.000000
3571 0 1 0.000000 102.069754 17.750000 15.000000
3572 0 1 0.000000 102.069754 19.170000 15.000000
3573 0 1 0.000000 103.299510 19.880000 15.000000
3574 0 1 0.000000 103.299510 21.300000 15.000000
3575 0 1 0.000000 104.529266 22.010000 15.000000
3576 0 1 0.000000 104.529266 23.430000 15.000000
3577 0 1 0.000000 105.759022 24.140000 15.000000
3578 0 2 0.150000 105.759022 25.560000 15.000000
3579 0 1 0.000000 106.988778 26.270000 15.000000
3580 0 1 0.000000 106.988778 27.690000 15.000000
3581 0 1 0.000000 108.218534 28.400000 15.000000
3582 0 1 0.000000 108.218534 29.820000 15.000000
3583 0 2 0.150000 109.448291 30.530000 15.000000
3584 0 1 0.000000 109.448291 31.950000 15.000000
3585 0 2 0.150000 110.678047 32.660000 15.000000
3586 0 1 0.000000 110.678047 34.080000 15.000000
3587 0 1 0.000000 111.907803 34.790000 15.000000
3588 0 1 0.000000 111.907803 36.210000 15.000000
3589 0 1 0.000000 113.137559 36.920000 15.000000
3590 0 1 0.000000 113.137559 38.340000 15.000000
3591 0 1 0.000000 114.367315 39.050000 15.000000
3592 0 1 0.000000 93.461462 0.000000 15.000000
3593 0 1 0.000000 94.691218 0.710000 15.000000
3594 0 1 0.000000 94.691218 2.130000 15.000000
3595 0 1 0.000000 95.920974 2.840000 15.000000
3596 0 1 0.000000 95.920974 4.260000 15.000000
3597 0 1 0.000000 97.150730 4.970000 15.000000
3598 0 1 0.000000 97.150730 6.390000 15.000000
3599 0 1 0.000000 98.380486 7.100000 15.000000
3600 0 1 0.000000 98.380486 8.520000 15.000000
3601 0 1 0.000000 99.610242 9.230000 15.000000
3602 0 1 0.000000 99.610242 10.650000 15.000000
3603 0 1 0.000000 100.839998 11.360000 15.000000
3604 0 1 0.000000 100.839998 12.780000 15.000000
3605 0 1 0.000000 102.069754 13.490000 15.000000
3606 0 1 0.000000 102.069754 14.910000 15.000000
3607 0 1 0.000000 103.299510 15.620000 15.000000
3608 0 1 0.000000 103.299510 17.040000 15.000000
3609 0 1 0.000000 104.529266 17.750000 15.000000
3610 0 1 0.000000 104.529266 19.170000 15.000000
3611 0 1 0.000000 105.759022 19.880000 15.000000
3612 0 1 0.000000 105.759022 21.300000 15.000000
3613 0 2 0.150000 106.988778 22.010000 15.000000
3614 0 1 0.000000 106.988778 23.430000 15.000000
3615 0 1 0.000000 108.218534 24.140000 15.000000
3616 0 1 0.000000 108.218534 25.560000 15.000000
3617 0 1 0.000000 109.448291 26.270000 15.000000
3618 0 1 0.000000 109.448291 27.690000 15.000000
3619 0 1 0.000000 110.678047 28.400000 15.000000
3620 0 1 0.000000 110.678047 29.820000 15.000000
3621 0 1 0.000000 111.907803 30.530000 15.000000
3622 0 1 0.000000 111.907803 31.950000 15.000000
3623 0 1 0.000000 113.137559 32.660000 15.000000
3624 0 1 0.000000 113.137559 34.080000 15.000000
3625 0 1 0.000000 114.367315 34.790000 15.000000
3626 0 1 0.000000 114.367315 36.210000 15.000000
3627 0 1 0.000000 115.597071 36.920000 15.000000
3628 0 1 0.000000 115.597071 38.340000 15.000000
3629 0 1 0.000000 116.826827 39.050000 15.000000
3630 0 1 0.000000 95.920974 0.000000 15.000000
3631 0 1 0.000000 97.150730 0.710000 15.000000
3632 0 1 0.000000 97.150730 2.130000 15.000000
3633 0 1 0.000000 98.380486 2.840000 15.000000
3634 0 1 0.000000 98.380486 4.260000 15.000000
3635 0 1 0.000000 99.610242 4.970000 15.000000
3636 0 1 0.000000 99.610242 6.390000 15.000000
3637 0 1 0.000000 100.839998 7.100000 15.000000
3638 0 1 0.000000 100.839998 8.520000 15.000000
3639 0 1 0.000000 102.069754 9.230000 15.000000
3640 0 1 0.000000 102.069754 10.650000 15.000000
3641 0 1 0.000000 103.299510 11.360000 15.000000
3642 0 1 0.000000 103.299510 12.780000 15.000000
3643 0 1 0.000000 104.529266 13.490000 15.000000
3644 0 1 0.000000 104.529266 14.910000 15.000000
3645 0 1 0.000000 105.759022 15.620000 15.000000
3646 0 1 0.000000 105.759022 17.040000 15.000000
3647 0 1 0.000000 106.988778 17.750000 15.000000
3648 0 1 0.000000 106.988778 19.170000 15.000000
3649 0 1 0.000000 108.218534 19.880000 15.000000
3650 0 1 0.000000 108.218534 21.300000 15.000000
3651 0 1 0.000000 109.448291 22.010000 15.000000
3652 0 2 0.150000 109.448291 23.430000 15.000000
3653 0 1 0.000000 110.678047 24.140000 15.000000
3654 0 1 0.000000 110.678047 25.560000 15.000000
3655 0 1 0.000000 111.907803 26.270000 15.000000
3656 0 1 0.000000 111.907803 27.690000 15.000000
3657 0 1 0.000000 113.137559 28.400000 15.000000
3658 0 1 0.000000 113.137559 29.820000 15.000000
3659 0 1 0.000000 114.367315 30.530000 15.000000
3660 0 1 0.000000 114.367315 31.950000 15.000000
3661 0 1 0.000000 115.597071 32.660000 15.000000
3662 0 2 0.150000 115.597071 34.080000 15.000000
3663 0 1 0.000000 116.826827 34.790000 15.000000
3664 0 1 0.000000 116.826827 36.210000 15.000000
3665 0 1 0.000000 118.056583 36.920000 15.000000
3666 0 1 0.000000 118.056583 38.340000 15.000000
3667 0 1 0.000000 119.286339 39.050000 15.000000
3668 0 2 0.150000 98.380486 0.000000 15.000000
3669 0 2 0.150000 99.610242 0.710000 15.000000
3670 0 2 0.150000 99.610242 2.130000 15.000000
3671 0 1 0.000000 100.839998 2.840000 15.000000
3672 0 1 0.000000 100.839998 4.260000 15.000000
3673 0 1 0.000000 102.069754 4.970000 15.000000
3674 0 1 0.000000 102.069754 6.390000 15.000000
3675 0 1 0.000000 103.299510 7.100000 15.000000
3676 0 1 0.000000 103.299510 8.520000 15.000000
3677 0 1 0.000000 104.529266 9.230000 15.000000
3678 0 1 0.000000 104.529266 10.650000 15.000000
3679 0 1 0.000000 105.759022 11.360000 15.000000
3680 0 1 0.000000 105.759022 12.780000 15.000000
3681 0 1 0.000000 106.988778 13.490000 15.000000
3682 0 1 0.000000 106.988778 14.910000 15.000000
3683 0 2 0.150000 108.218534 15.620000 15.000000
3684 0 1 0.000000 108.218534 17.040000 15.000000
3685 0 1 0.000000 109.448291 17.750000 15.000000
3686 0 1 0.000000 109.448291 19.170000 15.000000
3687 0 1 0.000000 110.678047 19.880000 15.000000
3688 0 2 0.150000 110.678047 21.300000 15.000000
3689 0 1 0.000000 111.907803 22.010000 15.000000
3690 0 1 0.000000 111.907803 23.430000 15.000000
3691 0 1 0.000000 113.137559 24.140000 15.000000
3692 0 1 0.000000 113.137559 25.560000 15.000000
3693 0 2 0.150000 114.367315 26.270000 15.000000
3694 0 1 0.000000 114.367315 27.690000 15.000000
3695 0 1 0.000000 115.597071 28.400000 15.000000
3696 0 1 0.000000 115.597071 29.820000 15.000000
3697 0 1 0.000000 116.826827 30.530000 15.000000
3698 0 1 0.000000 116.826827 31.950000 15.000000
3699 0 1 0.000000 118.056583 32.660000 15.000000
3700 0 2 0.150000 118.056583 34.080000 15.000000
3701 0 1 0.000000 119.286339 34.790000 15.000000
3702 0 1 0.000000 119.286339 36.210000 15.000000
3703 0 1 0.000000 120.516095 36.920000 15.000000
3704 0 1 0.000000 120.516095 38.340000 15.000000
3705 0 1 0.000000 121.745851 39.050000 15.000000
3706 0 1 0.000000 100.839998 0.000000 15.000000
3707 0 1 0.000000 102.069754 0.710000 15.000000
3708 0 1 0.000000 102.069754 2.130000 15.000000
3709 0 1 0.000000 103.299510 2.840000 15.000000
3710 0 2 0.150000 103.299510 4.260000 15.000000
3711 0 1 0.000000 104.529266 4.970000 15.000000
3712 0 1 0.000000 104.529266 6.390000 15.000000
3713 0 2 0.150000 105.759022 7.100000 15.000000
3714 0 1 0.000000 105.759022 8.520000 15.000000
3715 0 1 0.000000 106.988778 9.230000 15.000000
3716 0 1 0.000000 106.988778 10.650000 15.000000
3717 0 1 0.000000 108.218534 11.360000 15.000000
3718 0 1 0.000000 108.218534 12.780000 15.000000
3719 0 1 0.000000 109.448291 13.490000 15.000000
3720 0 1 0.000000 109.448291 14.910000 15.000000
3721 0 2 0.150000 110.678047 15.620000 15.000000
3722 0 1 0.000000 110.678047 17.040000 15.000000
3723 0 1 0.000000 111.907803 17.750000 15.000000
3724 0 1 0.000000 111.907803 19.170000 15.000000
3725 0 1 0.000000 113.137559 19.880000 15.000000
3726 0 1 0.000000 113.137559 21.300000 15.000000
3727 0 1 0.000000 114.367315 22.010000 15.000000
3728 0 1 0.000000 114.367315 23.430000 15.000000
3729 0 2 0.150000 115.597071 24.140000 15.000000
3730 0 1 0.000000 115.597071 25.560000 15.000000
3731 0 1 0.000000 116.826827 26.270000 15.000000
3732 0 2 0.150000 116.826827 27.690000 15.000000
3733 0 1 0.000000 118.056583 28.400000 15.000000
3734 0 1 0.000000 118.056583 29.820000 15.000000
3735 0 1 0.000000 119.286339 30.530000 15.000000
3736 0 1 0.000000 119.286339 31.950000 15.000000
3737 0 1 0.000000 120.516095 32.660000 15.000000
3738 0 1 0.000000 120.516095 34.080000 15.000000
3739 0 1 0.000000 121.745851 34.790000 15.000000
3740 0 1 0.000000 121.745851 36.210000 15.000000
3741 0 1 0.000000 122.975607 36.920000 15.000000
3742 0 1 0.000000 122.975607 38.340000 15.000000
3743 0 1 0.000000 124.205363 39.050000 15.000000
3744 0 1 0.000000 103.299510 0.000000 15.000000
3745 0 1 0.000000 104.529266 0.710000 15.000000
3746 0 1 0.000000 104.529266 2.130000 15.000000
3747 0 1 0.000000 105.759022 2.840000 15.000000
3748 0 1 0.000000 105.759022 4.260000 15.000000
3749 0 1 0.000000 106.988778 4.970000 15.000000
3750 0 1 0.000000 106.988778 6.390000 15.000000
3751 0 1 0.000000 108.218534 7.100000 15.000000
3752 0 1 0.000000 108.218534 8.520000 15.000000
3753 0 1 0.000000 109.448291 9.230000 15.000000
3754 0 1 0.000000 109.448291 10.650000 15.000000
3755 0 1 0.000000 110.678047 11.360000 15.000000
3756 0 1 0.000000 110.678047 12.780000 15.000000
3757 0 1 0.000000 111.907803 13.490000 15.000000
3758 0 2 0.150000 111.907803 14.910000 15.000000
3759 0 1 0.000000 113.137559 15.620000 15.000000
3760 0 1 0.000000 113.137559 17.040000 15.000000
3761 0 1 0.000000 114.367315 17.750000 15.000000
3762 0 1 0.000000 114.367315 19.170000 15.000000
3763 0 1 0.000000 115.597071 19.880000 15.000000
3764 0 1 0.000000 115.597071 21.300000 15.000000
3765 0 1 0.000000 116.826827 22.010000 15.000000
3766 0 1 0.000000 116.826827 23.430000 15.000000
3767 0 1 0.000000 118.056583 24.140000 15.000000
3768 0 1 0.000000 118.056583 25.560000 15.000000
3769 0 1 0.000000 119.286339 26.270000 15.000000
3770 0 1 0.000000 119.286339 27.690000 15.000000
3771 0 1 0.000000 120.516095 28.400000 15.000000
3772 0 1 0.000000 120.516095 29.820000 15.000000
3773 0 1 0.000000 121.745851 30.530000 15.000000
3774 0 1 0.000000 121.745851 31.950000 15.000000
3775 0 1 0.000000 122.975607 32.660000 15.000000
3776 0 1 0.000000 122.975607 34.080000 15.000000
3777 0 1 0.000000 124.205363 34.790000 15.000000
3778 0 1 0.000000 124.205363 36.210000 15.000000
3779 0 2 0.150000 125.435119 36.920000 15.000000
3780 0 1 0.000000 125.435119 38.340000 15.000000
3781 0 2 0.150000 126.664876 39.050000 15.000000
3782 0 1 0.000000 105.759022 0.000000 15.000000
3783 0 1 0.000000 106.988778 0.710000 15.000000
3784 0 1 0.000000 106.988778 2.130000 15.000000
3785 0 1 0.000000 108.218534 2.840000 15.000000
3786 0 1 0.000000 108.218534 4.260000 15.000000
3787 0 1 0.000000 109.448291 4.970000 15.000000
3788 0 1 0.000000 109.448291 6.390000 15.000000
3789 0 1 0.000000 110.678047 7.100000 15.000000
3790 0 1 0.000000 110.678047 8.520000 15.000000
3791 0 1 0.000000 111.907803 9.230000 15.000000
3792 0 1 0.000000 111.907803 10.650000 15.000000
3793 0 1 0.000000 113.137559 11.360000 15.000000
3794 0 2 0.150000 113.137559 12.780000 15.000000
3795 0 1 0.000000 114.367315 13.490000 15.000000
3796 0 1 0.000000 114.367315 14.910000 15.000000
3797 0 1 0.000000 115.597071 15.620000 15.000000
3798 0 1 0.000000 115.597071 17.040000 15.000000
3799 0 1 0.000000 116.826827 17.750000 15.000000
3800 0 1 0.000000 116.826827 19.170000 15.000000
3801 0 2 0.150000 118.056583 19.880000 15.000000
3802 0 1 0.000000 118.056583 21.300000 15.000000
3803 0 1 0.000000 119.286339 22.010000 15.000000
3804 0 1 0.000000 119.286339 23.430000 15.000000
3805 0 1 0.000000 120.516095 24.140000 15.000000
3806 0 2 0.150000 120.516095 25.560000 15.000000
3807 0 1 0.000000 121.745851 26.270000 15.000000
3808 0 1 0.000000 121.745851 27.690000 15.000000
3809 0 1 0.000000 122.975607 28.400000 15.000000
3810 0 1 0.000000 122.975607 29.820000 15.000000
3811 0 1 0.000000 124.205363 30.530000 15.000000
3812 0 1 0.000000 124.205363 31.950000 15.000000
3813 0 1 0.000000 125.435119 32.660000 15.000000
3814 0 1 0.000000 125.435119 34.080000 15.000000
3815 0 1 0.000000 126.664876 34.790000 15.000000
3816 0 2 0.150000 126.664876 36.210000 15.000000
3817 0 1 0.000000 127.894632 36.920000 15.000000
3818 0 1 0.000000 127.894632 38.340000 15.000000
3819 0 2 0.150000 129.124388 39.050000 15.000000
3820 0 1 0.000000 108.218534 0.000000 15.000000
3821 0 1 0.000000 109.448291 0.710000 15.000000
3822 0 1 0.000000 109.448291 2.130000 15.000000
3823 0 1 0.000000 110.678047 2.840000 15.000000
3824 0 1 0.000000 110.678047 4.260000 15.000000
3825 0 1 0.000000 111.907803 4.970000 15.000000
3826 0 1 0.000000 111.907803 6.390000 15.000000
3827 0 1 0.000000 113.137559 7.100000 15.000000
3828 0 1 0.000000 113.137559 8.520000 15.000000
3829 0 1 0.000000 114.367315 9.230000 15.000000
3830 0 1 0.000000 114.367315 10.650000 15.000000
3831 0 1 0.000000 115.597071 11.360000 15.000000
3832 0 2 0.150000 115.597071 12.780000 15.000000
3833 0 1 0.000000 116.826827 13.490000 15.000000
3834 0 1 0.000000 116.826827 14.910000 15.000000
3835 0 1 0.000000 118.056583 15.620000 15.000000
3836 0 1 0.000000 118.056583 17.040000 15.000000
3837 0 1 0.000000 119.286339 17.750000 15.000000
3838 0 2 0.150000 119.286339 19.170000 15.000000
3839 0 1 0.000000 120.516095 19.880000 15.000000
3840 0 1 0.000000 120.516095 21.300000 15.000000
3841 0 1 0.000000 121.745851 22.010000 15.000000
3842 0 1 0.000000 121.745851 23.430000 15.000000
3843 0 1 0.000000 122.975607 24.140000 15.000000
3844 0 1 0.000000 122.975607 25.560000 15.000000
3845 0 2 0.150000 124.205363 26.270000 15.000000
3846 0 1 0.000000 124.205363 27.690000 15.000000
3847 0 1 0.000000 125.435119 28.400000 15.000000
3848 0 1 0.000000 125.435119 29.820000 15.000000
3849 0 1 0.000000 126.664876 30.530000 15.000000
3850 0 1 0.000000 126.664876 31.950000 15.000000
3851 0 1 0.000000 127.894632 32.660000 15.000000
3852 0 1 0.000000 127.894632 34.080000 15.000000
3853 0 2 0.150000 129.124388 34.790000 15.000000
3854 0 1 0.000000 129.124388 36.210000 15.000000
3855 0 1 0.000000 130.354144 36.920000 15.000000
3856 0 1 0.000000 130.354144 38.340000 15.000000
3857 0 1 0.000000 131.583900 39.050000 15.000000
3858 0 1 0.000000 110.678047 0.000000 15.000000
3859 0 1 0.000000 111.907803 0.710000 15.000000
3860 0 1 0.000000 111.907803 2.130000 15.000000
3861 0 1 0.000000 113.137559 2.840000 15.000000
3862 0 1 0.000000 113.137559 4.260000 15.000000
3863 0 2 0.150000 114.367315 4.970000 15.000000
3864 0 1 0.000000 114.367315 6.390000 15.000000
3865 0 1 0.000000 115.597071 7.100000 15.000000
3866 0 1 0.000000 115.597071 8.520000 15.000000
3867 0 1 0.000000 116.826827 9.230000 15.000000
3868 0 1 0.000000 116.826827 10.650000 15.000000
3869 0 1 0.000000 118.056583 11.360000 15.000000
3870 0 1 0.000000 118.056583 12.780000 15.000000
3871 0 1 0.000000 119.286339 13.490000 15.000000
3872 0 1 0.000000 119.286339 14.910000 15.000000
3873 0 2 0.150000 120.516095 15.620000 15.000000
3874 0 1 0.000000 120.516095 17.040000 15.000000
3875 0 1 0.000000 121.745851 17.750000 15.000000
3876 0 1 0.000000 121.745851 19.170000 15.000000
3877 0 1 0.000000 122.975607 19.880000 15.000000
3878 0 1 0.000000 122.975607 21.300000 15.000000
3879 0 1 0.000000 124.205363 22.010000 15.000000
3880 0 1 0.000000 124.205363 23.430000 15.000000
3881 0 1 0.000000 125.435119 24.140000 15.000000
3882 0 1 0.000000 125.435119 25.560000 15.000000
3883 0 1 0.000000 126.664876 26.270000 15.000000
3884 0 1 0.000000 126.664876 27.690000 15.000000
3885 0 1 0.000000 127.894632 28.400000 15.000000
3886 0 1 0.000000 127.894632 29.820000 15.000000
3887 0 1 0.000000 129.124388 30.530000 15.000000
3888 0 1 0.000000 129.124388 31.950000 15.000000
3889 0 1 0.000000 130.354144 32.660000 15.000000
3890 0 1 0.000000 130.354144 34.080000 15.000000
3891 0 1 0.000000 131.583900 34.790000 15.000000
3892 0 1 0.000000 131.583900 36.210000 15.000000
3893 0 1 0.000000 132.813656 36.920000 15.000000
3894 0 1 0.000000 132.813656 38.340000 15.000000
3895 0 1 0.000000 134.043412 39.050000 15.000000
3896 0 1 0.000000 113.137559 0.000000 15.000000
3897 0 1 0.000000 114.367315 0.710000 15.000000
3898 0 1 0.000000 114.367315 2.130000 15.000000
3899 0 1 0.000000 115.597071 2.840000 15.000000
3900 0 1 0.000000 115.597071 4.260000 15.000000
3901 0 1 0.000000 116.826827 4.970000 15.000000
3902 0 1 0.000000 116.826827 6.390000 15.000000
3903 0 1 0.000000 118.056583 7.100000 15.000000
3904 0 1 0.000000 118.056583 8.520000 15.000000
3905 0 2 0.150000 119.286339 9.230000 15.000000
3906 0 1 0.000000 119.286339 10.650000 15.000000
3907 0 1 0.000000 120.516095 11.360000 15.000000
3908 0 1 0.000000 120.516095 12.780000 15.000000
3909 0 1 0.000000 121.745851 13.490000 15.000000
3910 0 1 0.000000 121.745851 14.910000 15.000000
3911 0 1 0.000000 122.975607 15.620000 15.000000
3912 0 1 0.000000 122.975607 17.040000 15.000000
3913 0 1 0.000000 124.205363 17.750000 15.000000
3914 0 1 0.000000 124.205363 19.170000 15.000000
3915 0 1 0.000000 125.435119 19.880000 15.000000
3916 0 2 0.150000 125.435119 21.300000 15.000000
3917 0 1 0.000000 126.664876 22.010000 15.000000
3918 0 1 0.000000 126.664876 23.430000 15.000000
3919 0 1 0.000000 127.894632 24.140000 15.000000
3920 0 1 0.000000 127.894632 25.560000 15.000000
3921 0 1 0.000000 129.124388 26.270000 15.000000
3922 0 1 0.000000 129.124388 27.690000 15.000000
3923 0 1 0.000000 130.354144 28.400000 15.000000
3924 0 1 0.000000 130.354144 29.820000 15.000000
3925 0 1 0.000000 131.583900 30.530000 15.000000
3926 0 1 0.000000 131.583900 31.950000 15.000000
3927 0 1 0.000000 132.813656 32.660000 15.000000
3928 0 2 0.150000 132.813656 34.080000 15.000000
3929 0 1 0.000000 134.043412 34.790000 15.000000
3930 0 1 0.000000 134.043412 36.210000 15.000000
3931 0 1 0.000000 135.273168 36.920000 15.000000
3932 0 2 0.150000 135.273168 38.340000 15.000000
3933 0 1 0.000000 136.502924 39.050000 15.000000
3934 0 1 0.000000 115.597071 0.000000 15.000000
3935 0 1 0.000000 116.826827 0.710000 15.000000
3936 0 1 0.000000 116.826827 2.130000 15.000000
3937 0 2 0.150000 118.056583 2.840000 15.000000
3938 0 1 0.000000 118.056583 4.260000 15.000000
3939 0 1 0.000000 119.286339 4.970000 15.000000
3940 0 1 0.000000 119.286339 6.390000 15.000000
3941 0 1 0.000000 120.516095 7.100000 15.000000
3942 0 1 0.000000 120.516095 8.520000 15.000000
3943 0 1 0.000000 121.745851 9.230000 15.000000
3944 0 1 0.000000 121.745851 10.650000 15.000000
3945 0 1 0.000000 122.975607 11.360000 15.000000
3946 0 1 0.000000 122.975607 12.780000 15.000000
3947 0 2 0.150000 124.205363 13.490000 15.000000
3948 0 1 0.000000 124.205363 14.910000 15.000000
3949 0 1 0.000000 125.435119 15.620000 15.000000
3950 0 1 0.000000 125.435119 17.040000 15.000000
3951 0 1 0.000000 126.664876 17.750000 15.000000
3952 0 1 0.000000 126.664876 19.170000 15.000000
3953 0 1 0.000000 127.894632 19.880000 15.000000
3954 0 1 0.000000 127.894632 21.300000 15.000000
3955 0 1 0.000000 129.124388 22.010000 15.000000
3956 0 1 0.000000 129.124388 23.430000 15.000000
3957 0 1 0.000000 130.354144 24.140000 15.000000
3958 0 1 0.000000 130.354144 25.560000 15.000000
3959 0 1 0.000000 131.583900 26.270000 15.000000
3960 0 1 0.000000 131.583900 27.690000 15.000000
3961 0 1 0.000000 132.813656 28.400000 15.000000
3962 0 1 0.000000 132.813656 29.820000 15.000000
3963 0 1 0.000000 134.043412 30.530000 15.000000
3964 0 1 0.000000 134.043412 31.950000 15.000000
3965 0 1 0.000000 135.273168 32.660000 15.000000
3966 0 1 0.000000 135.273168 34.080000 15.000000
3967 0 1 0.000000 136.502924 34.790000 15.000000
3968 0 1 0.000000 136.502924 36.210000 15.000000
3969 0 2 0.150000 137.732680 36.920000 15.000000
3970 0 1 0.000000 137.732680 38.340000 15.000000
3971 0 1 0.000000 138.962436 39.050000 15.000000
3972 0 1 0.000000 118.056583 0.000000 15.000000
3973 0 1 0.000000 119.286339 0.710000 15.000000
3974 0 1 0.000000 119.286339 2.130000 15.000000
3975 0 1 0.000000 120.516095 2.840000 15.000000
3976 0 1 0.000000 120.516095 4.260000 15.000000
3977 0 1 0.000000 121.745851 4.970000 15.000000
3978 0 1 0.000000 121.745851 6.390000 15.000000
3979 0 1 0.000000 122.975607 7.100000 15.000000
3980 0 1 0.000000 122.975607 8.520000 15.000000
3981 0 1 0.000000 124.205363 9.230000 15.000000
3982 0 1 0.000000 124.205363 10.650000 15.000000
3983 0 1 0.000000 125.435119 11.360000 15.000000
3984 0 1 0.000000 125.435119 12.780000 15.000000
3985 0 1 0.000000 126.664876 13.490000 15.000000
3986 0 1 0.000000 126.664876 14.910000 15.000000
3987 0 1 0.000000 127.894632 15.620000 15.000000
3988 0 1 0.000000 127.894632 17.040000 15.000000
3989 0 1 0.000000 129.124388 17.750000 15.000000
3990 0 1 0.000000 129.124388 19.170000 15.000000
3991 0 1 0.000000 130.354144 19.880000 15.000000
3992 0 1 0.000000 130.354144 21.300000 15.000000
3993 0 1 0.000000 131.583900 22.010000 15.000000
3994 0 1 0.000000 131.583900 23.430000 15.000000
3995 0 1 0.000000 132.813656 24.140000 15.000000
3996 0 1 0.000000 132.813656 25.560000 15.000000
3997 0 1 0.000000 134.043412 26.270000 15.000000
3998 0 1 0.000000 134.043412 27.690000 15.000000
3999 0 1 0.000000 135.273168 28.400000 15.000000
4000 0 1 0.000000 135.273168 29.820000 15.000000
4001 0 1 0.000000 136.502924 30.530000 15.000000
4002 0 1 0.000000 136.502924 31.950000 15.000000
4003 0 1 0.000000 137.732680 32.660000 15.000000
4004 0 1 0.000000 137.732680 34.080000 15.000000
4005 0 1 0.000000 138.962436 34.790000 15.000000
4006 0 1 0.000000 138.962436 36.210000 15.000000
4007 0 1 0.000000 140.192192 36.920000 15.000000
4008 0 1 0.000000 140.192192 38.340000 15.000000
4009 0 1 0.000000 141.421948 39.050000 15.000000
4010 0 1 0.000000 120.516095 0.000000 15.000000
4011 0 1 0.000000 121.745851 0.710000 15.000000
4012 0 1 0.000000 121.745851 2.130000 15.000000
4013 0 1 0.000000 122.975607 2.840000 15.000000
4014 0 1 0.000000 122.975607 4.260000 15.000000
4015 0 1 0.000000 124.205363 4.970000 15.000000
4016 0 1 0.000000 124.205363 6.390000 15.000000
4017 0 1 0.000000 125.435119 7.100000 15.000000
4018 0 1 0.000000 125.435119 8.520000 15.000000
4019 0 1 0.000000 126.664876 9.230000 15.000000
4020 0 1 0.000000 126.664876 10.650000 15.000000
4021 0 2 0.150000 127.894632 11.360000 15.000000
4022 0 1 0.000000 127.894632 12.780000 15.000000
4023 0 1 0.000000 129.124388 13.490000 15.000000
4024 0 1 0.000000 129.124388 14.910000 15.000000
4025 0 1 0.000000 130.354144 15.620000 15.000000
4026 0 1 0.000000 130.354144 17.040000 15.000000
4027 0 1 0.000000 131.583900 17.750000 15.000000
4028 0 1 0.000000 131.583900 19.170000 15.000000
4029 0 1 0.000000 132.813656 19.880000 15.000000
4030 0 1 0.000000 132.813656 21.300000 15.000000
4031 0 1 0.000000 134.043412 22.010000 15.000000
4032 0 1 0.000000 134.043412 23.430000 15.000000
4033 0 1 0.000000 135.273168 24.140000 15.000000
4034 0 1 0.000000 135.273168 25.560000 15.000000
4035 0 1 0.000000 136.502924 26.270000 15.000000
4036 0 2 0.150000 136.502924 27.690000 15.000000
4037 0 1 0.000000 137.732680 28.400000 15.000000
4038 0 1 0.000000 137.732680 29.820000 15.000000
4039 0 1 0.000000 138.962436 30.530000 15.000000
4040 0 1 0.000000 138.962436 31.950000 15.000000
4041 0 1 0.000000 140.192192 32.660000 15.000000
4042 0 2 0.150000 140.192192 34.080000 15.000000
4043 0 1 0.000000 141.421948 34.790000 15.000000
4044 0 1 0.000000 141.421948 36.210000 15.000000
4045 0 1 0.000000 142.651705 36.920000 15.000000
4046 0 1 0.000000 142.651705 38.340000 15.000000
4047 0 1 0.000000 143.881461 39.050000 15.000000
4048 0 1 0.000000 122.975607 0.000000 15.000000
4049 0 1 0.000000 124.205363 0.710000 15.000000
4050 0 1 0.000000 124.205363 2.130000 15.000000
4051 0 1 0.000000 125.435119 2.840000 15.000000
4052 0 2 0.150000 125.435119 4.260000 15.000000
4053 0 2 0.150000 126.664876 4.970000 15.000000
4054 0 1 0.000000 126.664876 6.390000 15.000000
4055 0 1 0.000000 127.894632 7.100000 15.000000
4056 0 1 0.000000 127.894632 8.520000 15.000000
4057 0 1 0.000000 129.124388 9.230000 15.000000
4058 0 1 0.000000 129.124388 10.650000 15.000000
4059 0 1 0.000000 130.354144 11.360000 15.000000
4060 0 1 0.000000 130.354144 12.780000 15.000000
4061 0 1 0.000000 131.583900 13.490000 15.000000
4062 0 2 0.150000 131.583900 14.910000 15.000000
4063 0 1 0.000000 132.813656 15.620000 15.000000
4064 0 2 0.150000 132.813656 17.040000 15.000000
4065 0 2 0.150000 134.043412 17.750000 15.000000
4066 0 1 0.000000 134.043412 19.170000 15.000000
4067 0 1 0.000000 135.273168 19.880000 15.000000
4068 0 1 0.000000 135.273168 21.300000 15.000000
4069 0 1 0.000000 136.502924 22.010000 15.000000
4070 0 1 0.000000 136.502924 23.430000 15.000000
4071 0 1 0.000000 137.732680 24.140000 15.000000
4072 0 2 0.150000 137.732680 25.560000 15.000000
4073 0 1 0.000000 138.962436 26.270000 15.000000
4074 0 1 0.000000 138.962436 27.690000 15.000000
4075 0 1 0.000000 140.192192 28.400000 15.000000
4076 0 1 0.000000 140.192192 29.820000 15.000000
4077 0 1 0.000000 141.421948 30.530000 15.000000
4078 0 1 0.000000 141.421948 31.950000 15.000000
4079 0 1 0.000000 142.651705 32.660000 15.000000
4080 0 1 0.000000 142.651705 34.080000 15.000000
4081 0 2 0.150000 143.881461 34.790000 15.000000
4082 0 1 0.000000 143.881461 36.210000 15.000000
4083 0 1 0.000000 145.111217 36.920000 15.000000
4084 0 2 0.150000 145.111217 38.340000 15.000000
4085 0 1 0.000000 146.340973 39.050000 15.000000
4086 0 2 0.150000 125.435119 0.000000 15.000000
4087 0 1 0.000000 126.664876 0.710000 15.000000
4088 0 1 0.000000 126.664876 2.130000 15.000000
4089 0 1 0.000000 127.894632 2.840000 15.000000
4090 0 2 0.150000 127.894632 4.260000 15.000000
4091 0 1 0.000000 129.124388 4.970000 15.000000
4092 0 1 0.000000 129.124388 6.390000 15.000000
4093 0 1 0.000000 130.354144 7.100000 15.000000
4094 0 1 0.000000 130.354144 8.520000 15.000000
4095 0 1 0.000000 131.583900 9.230000 15.000000
4096 0 1 0.000000 131.583900 10.650000 15.000000
4097 0 1 0.000000 132.813656 11.360000 15.000000
4098 0 1 0.000000 132.813656 12.780000 15.000000
4099 0 1 0.000000 134.043412 13.490000 15.000000
4100 0 1 0.000000 134.043412 14.910000 15.000000
4101 0 1 0.000000 135.273168 15.620000 15.000000
4102 0 1 0.000000 135.273168 17.040000 15.000000
4103 0 1 0.000000 136.502924 17.750000 15.000000
4104 0 1 0.000000 136.502924 19.170000 15.000000
4105 0 1 0.000000 137.732680 19.880000 15.000000
4106 0 1 0.000000 137.732680 21.300000 15.000000
4107 0 1 0.000000 138.962436 22.010000 15.000000
4108 0 1 0.000000 138.962436 23.430000 15.000000
4109 0 1 0.000000 140.192192 24.140000 15.000000
4110 0 1 0.000000 140.192192 25.560000 15.000000
4111 0 1 0.000000 141.421948 26.270000 15.000000
4112 0 1 0.000000 141.421948 27.690000 15.000000
4113 0 1 0.000000 142.651705 28.400000 15.000000
4114 0 1 0.000000 142.651705 29.820000 15.000000
4115 0 1 0.000000 143.881461 30.530000 15.000000
4116 0 1 0.000000 143.881461 31.950000 15.000000
4117 0 1 0.000000 145.111217 32.660000 15.000000
4118 0 1 0.000000 145.111217 34.080000 15.000000
4119 0 1 0.000000 146.340973 34.790000 15.000000
4120 0 2 0.150000 146.340973 36.210000 15.000000
4121 0 1 0.000000 147.570729 36.920000 15.000000
4122 0 1 0.000000 147.570729 38.340000 15.000000
4123 0 2 0.150000 148.800485 39.050000 15.000000
4124 0 1 0.000000 127.894632 0.000000 15.000000
4125 0 2 0.150000 129.124388 0.710000 15.000000
4126 0 2 0.150000 129.124388 2.130000 15.000000
4127 0 1 0.000000 130.354144 2.840000 15.000000
4128 0 1 0.000000 130.354144 4.260000 15.000000
4129 0 2 0.150000 131.583900 4.970000 15.000000
4130 0 1 0.000000 131.583900 6.390000 15.000000
4131 0 2 0.150000 132.813656 7.100000 15.000000
4132 0 1 0.000000 132.813656 8.520000 15.000000
4133 0 1 0.000000 134.043412 9.230000 15.000000
4134 0 1 0.000000 134.043412 10.650000 15.000000
4135 0 1 0.000000 135.273168 11.360000 15.000000
4136 0 1 0.000000 135.273168 12.780000 15.000000
4137 0 1 0.000000 136.502924 13.490000 15.000000
4138 0 1 0.000000 136.502924 14.910000 15.000000
4139 0 2 0.150000 137.732680 15.620000 15.000000
4140 0 2 0.150000 137.732680 17.040000 15.000000
4141 0 1 0.000000 138.962436 17.750000 15.000000
4142 0 1 0.000000 138.962436 19.170000 15.000000
4143 0 2 0.150000 140.192192 19.880000 15.000000
4144 0 1 0.000000 140.192192 21.300000 15.000000
4145 0 1 0.000000 141.421948 22.010000 15.000000
4146 0 1 0.000000 141.421948 23.430000 15.000000
4147 0 2 0.150000 142.651705 24.140000 15.000000
4148 0 1 0.000000 142.651705 25.560000 15.000000
4149 0 1 0.000000 143.881461 26.270000 15.000000
4150 0 1 0.000000 143.881461 27.690000 15.000000
4151 0 1 0.000000 145.111217 28.400000 15.000000
4152 0 1 0.000000 145.111217 29.820000 15.000000
4153 0 1 0.000000 146.340973 30.530000 15.000000
4154 0 1 0.000000 146.340973 31.950000 15.000000
4155 0 2 0.150000 147.570729 32.660000 15.000000
4156 0 1 0.000000 147.570729 34.080000 15.000000
4157 0 1 0.000000 148.800485 34.790000 15.000000
4158 0 1 0.000000 148.800485 36.210000 15.000000
4159 0 1 0.000000 130.354144 0.000000 15.000000
4160 0 1 0.000000 131.583900 0.710000 15.000000
4161 0 1 0.000000 131.583900 2.130000 15.000000
4162 0 1 0.000000 132.813656 2.840000 15.000000
4163 0 1 0.000000 132.813656 4.260000 15.000000
4164 0 1 0.000000 134.043412 4.970000 15.000000
4165 0 2 0.150000 134.043412 6.390000 15.000000
4166 0 1 0.000000 135.273168 7.100000 15.000000
4167 0 1 0.000000 135.273168 8.520000 15.000000
4168 0 1 0.000000 136.502924 9.230000 15.000000
4169 0 1 0.000000 136.502924 10.650000 15.000000
4170 0 1 0.000000 137.732680 11.360000 15.000000
4171 0 2 0.150000 137.732680 12.780000 15.000000
4172 0 1 0.000000 138.962436 13.490000 15.000000
4173 0 1 0.000000 138.962436 14.910000 15.000000
4174 0 2 0.150000 140.192192 15.620000 15.000000
4175 0 1 0.000000 140.192192 17.040000 15.000000
4176 0 1 0.000000 141.421948 17.750000 15.000000
4177 0 1 0.000000 141.421948 19.170000 15.000000
4178 0 1 0.000000 142.651705 19.880000 15.000000
4179 0 1 0.000000 142.651705 21.300000 15.000000
4180 0 1 0.000000 143.881461 22.010000 15.000000
4181 0 1 0.000000 143.881461 23.430000 15.000000
4182 0 1 0.000000 145.111217 24.140000 15.000000
4183 0 1 0.000000 145.111217 25.560000 15.000000
4184 0 1 0.000000 146.340973 26.270000 15.000000
4185 0 2 0.150000 146.340973 27.690000 15.000000
4186 0 1 0.000000 147.570729 28.400000 15.000000
4187 0 1 0.000000 147.570729 29.820000 15.000000
4188 0 1 0.000000 148.800485 30.530000 15.000000
4189 0 1 0.000000 148.800485 31.950000 15.000000
4190 0 1 0.000000 132.813656 0.000000 15.000000
4191 0 1 0.000000 134.043412 0.710000 15.000000
4192 0 1 0.000000 134.043412 2.130000 15.000000
4193 0 1 0.000000 135.273168 2.840000 15.000000
4194 0 1 0.000000 135.273168 4.260000 15.000000
4195 0 1 0.000000 136.502924 4.970000 15.000000
4196 0 1 0.000000 136.502924 6.390000 15.000000
4197 0 1 0.000000 137.732680 7.100000 15.000000
4198 0 1 0.000000 137.732680 8.520000 15.000000
4199 0 1 0.000000 138.962436 9.230000 15.000000
4200 0 1 0.000000 138.962436 10.650000 15.000000
4201 0 1 0.000000 140.192192 11.360000 15.000000
4202 0 1 0.000000 140.192192 12.780000 15.000000
4203 0 1 0.000000 141.421948 13.490000 15.000000
4204 0 1 0.000000 141.421948 14.910000 15.000000
4205 0 1 0.000000 142.651705 15.620000 15.000000
4206 0 1 0.000000 142.651705 17.040000 15.000000
4207 0 1 0.000000 143.881461 17.750000 15.000000
4208 0 1 0.000000 143.881461 19.170000 15.000000
4209 0 1 0.000000 145.111217 19.880000 15.000000
4210 0 1 0.000000 145.111217 21.300000 15.000000
4211 0 1 0.000000 146.340973 22.010000 15.000000
4212 0 1 0.000000 146.340973 23.430000 15.000000
4213 0 1 0.000000 147.570729 24.140000 15.000000
4214 0 1 0.000000 147.570729 25.560000 15.000000
4215 0 1 0.000000 148.800485 26.270000 15.000000
4216 0 2 0.150000 148.800485 27.690000 15.000000
4217 0 1 0.000000 135.273168 0.000000 15.000000
4218 0 1 0.000000 136.502924 0.710000 15.000000
4219 0 2 0.150000 136.502924 2.130000 15.000000
4220 0 1 0.000000 137.732680 2.840000 15.000000
4221 0 1 0.000000 137.732680 4.260000 15.000000
4222 0 1 0.000000 138.962436 4.970000 15.000000
4223 0 1 0.000000 138.962436 6.390000 15.000000
4224 0 2 0.150000 140.192192 7.100000 15.000000
4225 0 1 0.000000 140.192192 8.520000 15.000000
4226 0 1 0.000000 141.421948 9.230000 15.000000
4227 0 1 0.000000 141.421948 10.650000 15.000000
4228 0 1 0.000000 142.651705 11.360000 15.000000
4229 0 1 0.000000 142.651705 12.780000 15.000000
4230 0 2 0.150000 143.881461 13.490000 15.000000
4231 0 1 0.000000 143.881461 14.910000 15.000000
4232 0 1 0.000000 145.111217 15.620000 15.000000
4233 0 1 0.000000 145.111217 17.040000 15.000000
4234 0 1 0.000000 146.340973 17.750000 15.000000
4235 0 1 0.000000 146.340973 19.170000 15.000000
4236 0 1 0.000000 147.570729 19.880000 15.000000
4237 0 1 0.000000 147.570729 21.300000 15.000000
4238 0 1 0.000000 148.800485 22.010000 15.000000
4239 0 1 0.000000 148.800485 23.430000 15.000000
4240 0 1 0.000000 137.732680 0.000000 15.000000
4241 0 1 0.000000 138.962436 0.710000 15.000000
4242 0 1 0.000000 138.962436 2.130000 15.000000
4243 0 1 0.000000 140.192192 2.840000 15.000000
4244 0 1 0.000000 140.192192 4.260000 15.000000
4245 0 1 0.000000 141.421948 4.970000 15.000000
4246 0 1 0.000000 141.421948 6.390000 15.000000
4247 0 2 0.150000 142.651705 7.100000 15.000000
4248 0 1 0.000000 142.651705 8.520000 15.000000
4249 0 1 0.000000 143.881461 9.230000 15.000000
4250 0 1 0.000000 143.881461 10.650000 15.000000
4251 0 1 0.000000 145.111217 11.360000 15.000000
4252 0 1 0.000000 145.111217 12.780000 15.000000
4253 0 1 0.000000 146.340973 13.490000 15.000000
4254 0 1 0.000000 146.340973 14.910000 15.000000
4255 0 1 0.000000 147.570729 15.620000 15.000000
4256 0 1 0.000000 147.570729 17.040000 15.000000
4257 0 1 0.000000 148.800485 17.750000 15.000000
4258 0 1 0.000000 148.800485 19.170000 15.000000
4259 0 1 0.000000 140.192192 0.000000 15.000000
4260 0 1 0.000000 141.421948 0.710000 15.000000
4261 0 1 0.000000 141.421948 2.130000 15.000000
4262 0 1 0.000000 142.651705 2.840000 15.000000
4263 0 2 0.150000 142.651705 4.260000 15.000000
4264 0 1 0.000000 143.881461 4.970000 15.000000
4265 0 2 0.150000 143.881461 6.390000 15.000000
4266 0 1 0.000000 145.111217 7.100000 15.000000
4267 0 1 0.000000 145.111217 8.520000 15.000000
4268 0 1 0.000000 146.340973 9.230000 15.000000
4269 0 1 0.000000 146.340973 10.650000 15.000000
4270 0 1 0.000000 147.570729 11.360000 15.000000
4271 0 1 0.000000 147.570729 12.780000 15.000000
4272 0 1 0.000000 148.800485 13.490000 15.000000
4273 0 1 0.000000 148.800485 14.910000 15.000000
4274 0 1 0.000000 142.651705 0.000000 15.000000
4275 0 1 0.000000 143.881461 0.710000 15.000000
4276 0 1 0.000000 143.881461 2.130000 15.000000
4277 0 1 0.000000 145.111217 2.840000 15.000000
4278 0 1 0.000000 145.111217 4.260000 15.000000
4279 0 1 0.000000 146.340973 4.970000 15.000000
4280 0 1 0.000000 146.340973 6.390000 15.000000
4281 0 1 0.000000 147.570729 7.100000 15.000000
4282 0 1 0.000000 147.570729 8.520000 15.000000
4283 0 1 0.000000 148.800485 9.230000 15.000000
4284 0 1 0.000000 148.800485 10.650000 15.000000
4285 0 2 0.150000 145.111217 0.000000 15.000000
4286 0 1 0.000000 146.340973 0.710000 15.000000
4287 0 1 0.000000 146.340973 2.130000 15.000000
4288 0 1 0.000000 147.570729 2.840000 15.000000
4289 0 1 0.000000 147.570729 4.260000 15.000000
4290 0 1 0.000000 148.800485 4.970000 15.000000
4291 0 1 0.000000 148.800485 6.390000 15.000000
4292 0 1 0.000000 147.570729 0.000000 15.000000
4293 0 1 0.000000 148.800485 0.710000 15.000000
4294 0 1 0.000000 148.800485 2.130000 15.000000
4295 0 3 -0.585000 39.352194 4.260000 6.360000
4296 0 4 0.435000 39.352194 4.260000 7.320000
4297 0 3 -0.585000 145.111217 17.040000 6.360000
4298 0 4 0.435000 145.111217 17.040000 7.320000
4299 0 3 -0.585000 130.354144 32.660000 6.360000
4300 0 4 0.435000 130.354144 32.660000 7.320000
4301 0 3 -0.585000 56.568779 29.820000 6.360000
4302 0 4 0.435000 56.568779 29.820000 7.320000
4303 0 3 -0.585000 49.190243 29.820000 6.360000
4304 0 4 0.435000 49.190243 29.820000 7.320000
4305 0 3 -0.585000 52.879511 36.210000 6.360000
4306 0 4 0.435000 52.879511 36.210000 7.320000
4307 0 3 -0.585000 127.894632 34.080000 6.360000
4308 0 4 0.435000 127.894632 34.080000 7.320000
4309 0 3 -0.585000 94.691218 22.010000 6.360000
4310 0 4 0.435000 94.691218 22.010000 7.320000
4311 0 3 -0.585000 46.730731 2.840000 6.360000
4312 0 4 0.435000 46.730731 2.840000 7.320000
4313 0 3 -0.585000 22.135609 17.040000 6.360000
4314 0 4 0.435000 22.135609 17.040000 7.320000
4315 0 3 -0.585000 72.555608 17.750000 6.360000
4316 0 4 0.435000 72.555608 17.750000 7.320000
4317 0 3 -0.585000 56.568779 8.520000 6.360000
4318 0 4 0.435000 56.568779 8.520000 7.320000
4319 0 3 -0.585000 145.111217 24.140000 6.360000
4320 0 4 0.435000 145.111217 24.140000 7.320000
4321 0 3 -0.585000 38.122438 9.230000 6.360000
4322 0 4 0.435000 38.122438 9.230000 7.320000
4323 0 3 -0.585000 83.623413 25.560000 6.360000
4324 0 4 0.435000 83.623413 25.560000 7.320000
4325 0 3 -0.585000 94.691218 30.530000 6.360000
4326 0 4 0.435000 94.691218 30.530000 7.320000
4327 0 3 -0.585000 73.785364 28.400000 6.360000
4328 0 4 0.435000 73.785364 28.400000 7.320000
4329 0 3 -0.585000 94.691218 0.710000 6.360000
4330 0 4 0.435000 94.691218 0.710000 7.320000
4331 0 3 -0.585000 95.920974 28.400000 6.360000
4332 0 4 0.435000 95.920974 28.400000 7.320000
4333 0 3 -0.585000 140.192192 11.360000 6.360000
4334 0 4 0.435000 140.192192 11.360000 7.320000
4335 0 3 -0.585000 98.380486 12.780000 6.360000
4336 0 4 0.435000 98.380486 12.780000 7.320000
4337 0 3 -0.585000 78.704389 24.140000 6.360000
4338 0 4 0.435000 78.704389 24.140000 7.320000
4339 0 3 -0.585000 84.853169 22.010000 6.360000
4340 0 4 0.435000 84.853169 22.010000 7.320000
4341 0 3 -0.585000 116.826827 2.130000 6.360000
4342 0 4 0.435000 116.826827 2.130000 7.320000
4343 0 3 -0.585000 22.135609 2.840000 6.360000
4344 0 4 0.435000 22.135609 2.840000 7.320000
4345 0 3 -0.585000 86.082925 36.920000 6.360000
4346 0 4 0.435000 86.082925 36.920000 7.320000
4347 0 3 -0.585000 91.001949 2.840000 6.360000
4348 0 4 0.435000 91.001949 2.840000 7.320000
4349 0 3 -0.585000 20.905853 17.750000 6.360000
4350 0 4 0.435000 20.905853 17.750000 7.320000
4351 0 3 -0.585000 55.339023 10.650000 6.360000
4352 0 4 0.435000 55.339023 10.650000 7.320000
4353 0 3 -0.585000 102.069754 6.390000 6.360000
4354 0 4 0.435000 102.069754 6.390000 7.320000
4355 0 3 -0.585000 108.218534 25.560000 6.360000
4356 0 4 0.435000 108.218534 25.560000 7.320000
4357 0 3 -0.585000 66.406828 38.340000 6.360000
4358 0 4 0.435000 66.406828 38.340000 7.320000
4359 0 3 -0.585000 92.231706 14.910000 6.360000
4360 0 4 0.435000 92.231706 14.910000 7.320000
4361 0 3 -0.585000 41.811706 32.660000 6.360000
4362 0 4 0.435000 41.811706 32.660000 7.320000
4363 0 3 -0.585000 57.798535 27.690000 6.360000
4364 0 4 0.435000 57.798535 27.690000 7.320000
4365 0 3 -0.585000 18.446341 17.750000 6.360000
4366 0 4 0.435000 18.446341 17.750000 7.320000
4367 0 3 -0.585000 15.986829 9.230000 6.360000
4368 0 4 0.435000 15.986829 9.230000 7.320000
4369 0 3 -0.585000 93.461462 8.520000 6.360000
4370 0 4 0.435000 93.461462 8.520000 7.320000
4371 0 3 -0.585000 9.838049 12.780000 6.360000
4372 0 4 0.435000 9.838049 12.780000 7.320000
4373 0 3 -0.585000 134.043412 19.170000 6.360000
4374 0 4 0.435000 134.043412 19.170000 7.320000
4375 0 3 -0.585000 115.597071 17.040000 6.360000
4376 0 4 0.435000 115.597071 17.040000 7.320000
4377 0 3 -0.585000 73.785364 25.560000 6.360000
4378 0 4 0.435000 73.785364 25.560000 7.320000
4379 0 3 -0.585000 88.542437 4.260000 6.360000
4380 0 4 0.435000 88.542437 4.260000 7.320000
4381 0 3 -0.585000 102.069754 31.950000 6.360000
4382 0 4 0.435000 102.069754 31.950000 7.320000
4383 0 3 -0.585000 29.514146 38.340000 6.360000
4384 0 4 0.435000 29.514146 38.340000 7.320000
4385 0 3 -0.585000 45.500975 36.210000 6.360000
4386 0 4 0.435000 45.500975 36.210000 7.320000
4387 0 3 -0.585000 148.800485 10.650000 6.360000
4388 0 4 0.435000 148.800485 10.650000 7.320000
4389 0 3 -0.585000 14.757073 0.000000 6.360000
4390 0 4 0.435000 14.757073 0.000000 7.320000
4391 0 3 -0.585000 27.054634 0.000000 6.360000
4392 0 4 0.435000 27.054634 0.000000 7.320000
4393 0 3 -0.585000 8.608293 10.650000 6.360000
4394 0 4 0.435000 8.608293 10.650000 7.320000
4395 0 3 -0.585000 27.054634 2.840000 6.360000
4396 0 4 0.435000 27.054634 2.840000 7.320000
4397 0 3 -0.585000 118.056583 12.780000 6.360000
4398 0 4 0.435000 118.056583 12.780000 7.320000
4399 0 3 -0.585000 44.271219 29.820000 6.360000
4400 0 4 0.435000 44.271219 29.820000 7.320000
4401 0 3 -0.585000 87.312681 19.170000 6.360000
4402 0 4 0.435000 87.312681 19.170000 7.320000
4403 0 3 -0.585000 147.570729 0.000000 6.360000
4404 0 4 0.435000 147.570729 0.000000 7.320000
4405 0 3 -0.585000 132.813656 24.140000 6.360000
4406 0 4 0.435000 132.813656 24.140000 7.320000
4407 0 3 -0.585000 75.015120 26.270000 6.360000
4408 0 4 0.435000 75.015120 26.270000 7.320000
4409 0 3 -0.585000 110.678047 29.820000 6.360000
4410 0 4 0.435000 110.678047 29.820000 7.320000
4411 0 3 -0.585000 6.148780 10.650000 6.360000
4412 0 4 0.435000 6.148780 10.650000 7.320000
4413 0 3 -0.585000 36.892682 17.040000 6.360000
4414 0 4 0.435000 36.892682 17.040000 7.320000
4415 0 3 -0.585000 83.623413 2.840000 6.360000
4416 0 4 0.435000 83.623413 2.840000 7.320000
4417 0 3 -0.585000 88.542437 25.560000 6.360000
4418 0 4 0.435000 88.542437 25.560000 7.320000
4419 0 3 -0.585000 13.527317 9.230000 6.360000
4420 0 4 0.435000 13.527317 9.230000 7.320000
4421 0 3 -0.585000 91.001949 21.300000 6.360000
4422 0 4 0.435000 91.001949 21.300000 7.320000
4423 0 3 -0.585000 125.435119 36.920000 6.360000
4424 0 4 0.435000 125.435119 36.920000 7.320000
4425 0 3 -0.585000 52.879511 14.910000 6.360000
4426 0 4 0.435000 52.879511 14.910000 7.320000
4427 0 3 -0.585000 126.664876 26.270000 6.360000
4428 0 4 0.435000 126.664876 26.270000 7.320000
4429 0 3 -0.585000 68.866340 7.100000 6.360000
4430 0 4 0.435000 68.866340 7.100000 7.320000
4431 0 3 -0.585000 71.325852 38.340000 6.360000
4432 0 4 0.435000 71.325852 38.340000 7.320000
4433 0 3 -0.585000 120.516095 17.040000 6.360000
4434 0 4 0.435000 120.516095 17.040000 7.320000
4435 0 3 -0.585000 145.111217 34.080000 6.360000
4436 0 4 0.435000 145.111217 34.080000 7.320000
4437 0 3 -0.585000 73.785364 38.340000 6.360000
4438 0 4 0.435000 73.785364 38.340000 7.320000
4439 0 3 -0.585000 40.581950 9.230000 6.360000
4440 0 4 0.435000 40.581950 9.230000 7.320000
4441 0 3 -0.585000 65.177072 27.690000 6.360000
4442 0 4 0.435000 65.177072 27.690000 7.320000
4443 0 3 -0.585000 97.150730 27.690000 6.360000
4444 0 4 0.435000 97.150730 27.690000 7.320000
4445 0 3 -0.585000 50.419999 31.950000 6.360000
4446 0 4 0.435000 50.419999 31.950000 7.320000
4447 0 3 -0.585000 47.960487 26.270000 6.360000
4448 0 4 0.435000 47.960487 26.270000 7.320000
4449 0 3 -0.585000 76.244877 36.920000 6.360000
4450 0 4 0.435000 76.244877 36.920000 7.320000
4451 0 3 -0.585000 147.570729 7.100000 6.360000
4452 0 4 0.435000 147.570729 7.100000 7.320000
4453 0 3 -0.585000 43.041463 4.970000 6.360000
4454 0 4 0.435000 43.041463 4.970000 7.320000
4455 0 3 -0.585000 70.096096 39.050000 6.360000
4456 0 4 0.435000 70.096096 39.050000 7.320000
4457 0 3 -0.585000 75.015120 23.430000 6.360000
4458 0 4 0.435000 75.015120 23.430000 7.320000
4459 0 3 -0.585000 68.866340 15.620000 6.360000
4460 0 4 0.435000 68.866340 15.620000 7.320000
4461 0 3 -0.585000 40.581950 36.210000 6.360000
4462 0 4 0.435000 40.581950 36.210000 7.320000
4463 0 3 -0.585000 47.960487 27.690000 6.360000
4464 0 4 0.435000 47.960487 27.690000 7.320000
4465 0 3 -0.585000 38.122438 19.170000 6.360000
4466 0 4 0.435000 38.122438 19.170000 7.320000
4467 0 3 -0.585000 36.892682 4.260000 6.360000
4468 0 4 0.435000 36.892682 4.260000 7.320000
4469 0 3 -0.585000 22.135609 25.560000 6.360000
4470 0 4 0.435000 22.135609 25.560000 7.320000
4471 0 3 -0.585000 118.056583 0.000000 6.360000
4472 0 4 0.435000 118.056583 0.000000 7.320000
4473 0 3 -0.585000 60.258048 4.970000 6.360000
4474 0 4 0.435000 60.258048 4.970000 7.320000
4475 0 3 -0.585000 132.813656 28.400000 6.360000
4476 0 4 0.435000 132.813656 28.400000 7.320000
4477 0 3 -0.585000 78.704389 36.920000 6.360000
4478 0 4 0.435000 78.704389 36.920000 7.320000
4479 0 3 -0.585000 116.826827 26.270000 6.360000
4480 0 4 0.435000 116.826827 26.270000 7.320000
4481 0 3 -0.585000 28.284390 31.950000 6.360000
4482 0 4 0.435000 28.284390 31.950000 7.320000
4483 0 3 -0.585000 103.299510 15.620000 6.360000
4484 0 4 0.435000 103.299510 15.620000 7.320000
4485 0 3 -0.585000 89.772193 23.430000 6.360000
4486 0 4 0.435000 89.772193 23.430000 7.320000
4487 0 3 -0.585000 129.124388 17.750000 6.360000
4488 0 4 0.435000 129.124388 17.750000 7.320000
4489 0 3 -0.585000 43.041463 27.690000 6.360000
4490 0 4 0.435000 43.041463 27.690000 7.320000
4491 0 3 -0.585000 60.258048 0.710000 6.360000
4492 0 4 0.435000 60.258048 0.710000 7.320000
4493 0 3 -0.585000 93.461462 4.260000 6.360000
4494 0 4 0.435000 93.461462 4.260000 7.320000
4495 0 3 -0.585000 65.177072 0.710000 6.360000
4496 0 4 0.435000 65.177072 0.710000 7.320000
4497 0 3 -0.585000 137.732680 4.260000 6.360000
4498 0 4 0.435000 137.732680 4.260000 7.320000
4499 0 3 -0.585000 92.231706 6.390000 6.360000
4500 0 4 0.435000 92.231706 6.390000 7.320000
4501 0 3 -0.585000 136.502924 4.970000 6.360000
4502 0 4 0.435000 136.502924 4.970000 7.320000
4503 0 3 -0.585000 39.352194 19.880000 6.360000
4504 0 4 0.435000 39.352194 19.880000 7.320000
4505 0 3 -0.585000 24.595121 29.820000 6.360000
4506 0 4 0.435000 24.595121 29.820000 7.320000
4507 0 3 -0.585000 43.041463 19.170000 6.360000
4508 0 4 0.435000 43.041463 19.170000 7.320000
4509 0 3 -0.585000 120.516095 15.620000 6.360000
4510 0 4 0.435000 120.516095 15.620000 7.320000
4511 0 3 -0.585000 129.124388 19.170000 6.360000
4512 0 4 0.435000 129.124388 19.170000 7.320000
4513 0 3 -0.585000 67.636584 6.390000 6.360000
4514 0 4 0.435000 67.636584 6.390000 7.320000
4515 0 3 -0.585000 111.907803 31.950000 6.360000
4516 0 4 0.435000 111.907803 31.950000 7.320000
4517 0 3 -0.585000 45.500975 19.170000 6.360000
4518 0 4 0.435000 45.500975 19.170000 7.320000
4519 0 3 -0.585000 72.555608 31.950000 6.360000
4520 0 4 0.435000 72.555608 31.950000 7.320000
4521 0 3 -0.585000 65.177072 9.230000 6.360000
4522 0 4 0.435000 65.177072 9.230000 7.320000
4523 0 3 -0.585000 134.043412 6.390000 6.360000
4524 0 4 0.435000 134.043412 6.390000 7.320000
4525 0 3 -0.585000 116.826827 23.430000 6.360000
4526 0 4 0.435000 116.826827 23.430000 7.320000
4527 0 3 -0.585000 126.664876 34.790000 6.360000
4528 0 4 0.435000 126.664876 34.790000 7.320000
4529 0 3 -0.585000 125.435119 19.880000 6.360000
4530 0 4 0.435000 125.435119 19.880000 7.320000
4531 0 3 -0.585000 73.785364 4.260000 6.360000
4532 0 4 0.435000 73.785364 4.260000 7.320000
4533 0 3 -0.585000 97.150730 4.970000 6.360000
4534 0 4 0.435000 97.150730 4.970000 7.320000
4535 0 3 -0.585000 129.124388 31.950000 6.360000
4536 0 4 0.435000 129.124388 31.950000 7.320000
4537 0 3 -0.585000 54.109267 34.080000 6.360000
4538 0 4 0.435000 54.109267 34.080000 7.320000
4539 0 3 -0.585000 95.920974 11.360000 6.360000
4540 0 4 0.435000 95.920974 11.360000 7.320000
4541 0 3 -0.585000 82.393657 22.010000 6.360000
4542 0 4 0.435000 82.393657 22.010000 7.320000
4543 0 3 -0.585000 44.271219 36.920000 6.360000
4544 0 4 0.435000 44.271219 36.920000 7.320000
4545 0 3 -0.585000 78.704389 4.260000 6.360000
4546 0 4 0.435000 78.704389 4.260000 7.320000
4547 0 3 -0.585000 127.894632 4.260000 6.360000
4548 0 4 0.435000 127.894632 4.260000 7.320000
4549 0 3 -0.585000 27.054634 11.360000 6.360000
4550 0 4 0.435000 27.054634 11.360000 7.320000
4551 0 3 -0.585000 57.798535 22.010000 6.360000
4552 0 4 0.435000 57.798535 22.010000 7.320000
4553 0 3 -0.585000 55.339023 6.390000 6.360000
4554 0 4 0.435000 55.339023 6.390000 7.320000
4555 0 3 -0.585000 119.286339 4.970000 6.360000
4556 0 4 0.435000 119.286339 4.970000 7.320000
4557 0 3 -0.585000 18.446341 27.690000 6.360000
4558 0 4 0.435000 18.446341 27.690000 7.320000
4559 0 3 -0.585000 72.555608 0.710000 6.360000
4560 0 4 0.435000 72.555608 0.710000 7.320000
4561 0 3 -0.585000 41.811706 15.620000 6.360000
4562 0 4 0.435000 41.811706 15.620000 7.320000
4563 0 3 -0.585000 104.529266 39.050000 6.360000
4564 0 4 0.435000 104.529266 39.050000 7.320000
4565 0 3 -0.585000 47.960487 17.750000 6.360000
4566 0 4 0.435000 47.960487 17.750000 7.320000
4567 0 3 -0.585000 65.177072 36.210000 6.360000
4568 0 4 0.435000 65.177072 36.210000 7.320000
4569 0 3 -0.585000 93.461462 21.300000 6.360000
4570 0 4 0.435000 93.461462 21.300000 7.320000
4571 0 3 -0.585000 36.892682 24.140000 6.360000
4572 0 4 0.435000 36.892682 24.140000 7.320000
4573 0 3 -0.585000 41.811706 2.840000 6.360000
4574 0 4 0.435000 41.811706 2.840000 7.320000
4575 0 3 -0.585000 77.474633 31.950000 6.360000
4576 0 4 0.435000 77.474633 31.950000 7.320000
4577 0 3 -0.585000 39.352194 29.820000 6.360000
4578 0 4 0.435000 39.352194 29.820000 7.320000
4579 0 3 -0.585000 55.339023 22.010000 6.360000
4580 0 4 0.435000 55.339023 22.010000 7.320000
4581 0 3 -0.585000 41.811706 0.000000 6.360000
4582 0 4 0.435000 41.811706 0.000000 7.320000
4583 0 3 -0.585000 142.651705 15.620000 6.360000
4584 0 4 0.435000 142.651705 15.620000 7.320000
4585 0 3 -0.585000 84.853169 4.970000 6.360000
4586 0 4 0.435000 84.853169 4.970000 7.320000
4587 0 3 -0.585000 57.798535 13.490000 6.360000
4588 0 4 0.435000 57.798535 13.490000 7.320000
4589 0 3 -0.585000 79.934145 22.010000 6.360000
4590 0 4 0.435000 79.934145 22.010000 7.320000
4591 0 3 -0.585000 97.150730 31.950000 6.360000
4592 0 4 0.435000 97.150730 31.950000 7.320000
4593 0 3 -0.585000 119.286339 17.750000 6.360000
4594 0 4 0.435000 119.286339 17.750000 7.320000
4595 0 3 -0.585000 141.421948 13.490000 6.360000
4596 0 4 0.435000 141.421948 13.490000 7.320000
4597 0 3 -0.585000 120.516095 0.000000 6.360000
4598 0 4 0.435000 120.516095 0.000000 7.320000
4599 0 3 -0.585000 38.122438 17.750000 6.360000
4600 0 4 0.435000 38.122438 17.750000 7.320000
4601 0 3 -0.585000 31.973658 28.400000 6.360000
4602 0 4 0.435000 31.973658 28.400000 7.320000
4603 0 3 -0.585000 71.325852 0.000000 6.360000
4604 0 4 0.435000 71.325852 0.000000 7.320000
4605 0 3 -0.585000 24.595121 15.620000 6.360000
4606 0 4 0.435000 24.595121 15.620000 7.320000
4607 0 3 -0.585000 91.001949 38.340000 6.360000
4608 0 4 0.435000 91.001949 38.340000 7.320000
4609 0 3 -0.585000 147.570729 15.620000 6.360000
4610 0 4 0.435000 147.570729 15.620000 7.320000
4611 0 3 -0.585000 33.203414 30.530000 6.360000
4612 0 4 0.435000 33.203414 30.530000 7.320000
4613 0 3 -0.585000 34.433170 15.620000 6.360000
4614 0 4 0.435000 34.433170 15.620000 7.320000
4615 0 3 -0.585000 33.203414 17.750000 6.360000
4616 0 4 0.435000 33.203414 17.750000 7.320000
4617 0 3 -0.585000 47.960487 30.530000 6.360000
4618 0 4 0.435000 47.960487 30.530000 7.320000
4619 0 3 -0.585000 110.678047 34.080000 6.360000
4620 0 4 0.435000 110.678047 34.080000 7.320000
4621 0 3 -0.585000 95.920974 19.880000 6.360000
4622 0 4 0.435000 95.920974 19.880000 7.320000
4623 0 3 -0.585000 109.448291 14.910000 6.360000
4624 0 4 0.435000 109.448291 14.910000 7.320000
4625 0 3 -0.585000 70.096096 23.430000 6.360000
4626 0 4 0.435000 70.096096 23.430000 7.320000
4627 0 3 -0.585000 105.759022 38.340000 6.360000
4628 0 4 0.435000 105.759022 38.340000 7.320000
4629 0 3 -0.585000 109.448291 27.690000 6.360000
4630 0 4 0.435000 109.448291 27.690000 7.320000
4631 0 3 -0.585000 81.163901 0.000000 6.360000
4632 0 4 0.435000 81.163901 0.000000 7.320000
4633 0 3 -0.585000 78.704389 28.400000 6.360000
4634 0 4 0.435000 78.704389 28.400000 7.320000
4635 0 3 -0.585000 27.054634 8.520000 6.360000
4636 0 4 0.435000 27.054634 8.520000 7.320000
4637 0 3 -0.585000 145.111217 21.300000 6.360000
4638 0 4 0.435000 145.111217 21.300000 7.320000
4639 0 3 -0.585000 92.231706 10.650000 6.360000
4640 0 4 0.435000 92.231706 10.650000 7.320000
4641 0 3 -0.585000 76.244877 4.260000 6.360000
4642 0 4 0.435000 76.244877 4.260000 7.320000
4643 0 3 -0.585000 35.662926 22.010000 6.360000
4644 0 4 0.435000 35.662926 22.010000 7.320000
4645 0 3 -0.585000 99.610242 22.010000 6.360000
4646 0 4 0.435000 99.610242 22.010000 7.320000
4647 0 3 -0.585000 25.824878 27.690000 6.360000
4648 0 4 0.435000 25.824878 27.690000 7.320000
4649 0 3 -0.585000 145.111217 29.820000 6.360000
4650 0 4 0.435000 145.111217 29.820000 7.320000
4651 0 3 -0.585000 132.813656 21.300000 6.360000
4652 0 4 0.435000 132.813656 21.300000 7.320000
4653 0 3 -0.585000 50.419999 14.910000 6.360000
4654 0 4 0.435000 50.419999 14.910000 7.320000
4655 0 3 -0.585000 40.581950 22.010000 6.360000
4656 0 4 0.435000 40.581950 22.010000 7.320000
4657 0 3 -0.585000 76.244877 8.520000 6.360000
4658 0 4 0.435000 76.244877 8.520000 7.320000
4659 0 3 -0.585000 125.435119 29.820000 6.360000
4660 0 4 0.435000 125.435119 29.820000 7.320000
4661 0 3 -0.585000 28.284390 22.010000 6.360000
4662 0 4 0.435000 28.284390 22.010000 7.320000
4663 0 3 -0.585000 51.649755 17.040000 6.360000
4664 0 4 0.435000 51.649755 17.040000 7.320000
4665 0 3 -0.585000 34.433170 38.340000 6.360000
4666 0 4 0.435000 34.433170 38.340000 7.320000
4667 0 3 -0.585000 92.231706 0.710000 6.360000
4668 0 4 0.435000 92.231706 0.710000 7.320000
4669 0 3 -0.585000 92.231706 17.750000 6.360000
4670 0 4 0.435000 92.231706 17.750000 7.320000
4671 0 3 -0.585000 91.001949 11.360000 6.360000
4672 0 4 0.435000 91.001949 11.360000 7.320000
4673 0 3 -0.585000 47.960487 13.490000 6.360000
4674 0 4 0.435000 47.960487 13.490000 7.320000
4675 0 3 -0.585000 71.325852 19.880000 6.360000
4676 0 4 0.435000 71.325852 19.880000 7.320000
4677 0 3 -0.585000 40.581950 2.130000 6.360000
4678 0 4 0.435000 40.581950 2.130000 7.320000
4679 0 3 -0.585000 73.785364 29.820000 6.360000
4680 0 4 0.435000 73.785364 29.820000 7.320000
4681 0 3 -0.585000 15.986829 10.650000 6.360000
4682 0 4 0.435000 15.986829 10.650000 7.320000
4683 0 3 -0.585000 102.069754 0.710000 6.360000
4684 0 4 0.435000 102.069754 0.710000 7.320000
4685 0 3 -0.585000 92.231706 31.950000 6.360000
4686 0 4 0.435000 92.231706 31.950000 7.320000
4687 0 3 -0.585000 137.732680 34.080000 6.360000
4688 0 4 0.435000 137.732680 34.080000 7.320000
4689 0 3 -0.585000 114.367315 17.750000 6.360000
4690 0 4 0.435000 114.367315 17.750000 7.320000
4691 0 3 -0.585000 44.271219 7.100000 6.360000
4692 0 4 0.435000 44.271219 7.100000 7.320000
4693 0 3 -0.585000 46.730731 17.040000 6.360000
4694 0 4 0.435000 46.730731 17.040000 7.320000
4695 0 3 -0.585000 114.367315 26.270000 6.360000
4696 0 4 0.435000 114.367315 26.270000 7.320000
4697 0 3 -0.585000 108.218534 28.400000 6.360000
4698 0 4 0.435000 108.218534 28.400000 7.320000
4699 0 3 -0.585000 75.015120 17.750000 6.360000
4700 0 4 0.435000 75.015120 17.750000 7.320000
4701 0 3 -0.585000 148.800485 19.170000 6.360000
4702 0 4 0.435000 148.800485 19.170000 7.320000
4703 0 3 -0.585000 12.297561 21.300000 6.360000
4704 0 4 0.435000 12.297561 21.300000 7.320000
4705 0 3 -0.585000 126.664876 14.910000 6.360000
4706 0 4 0.435000 126.664876 14.910000 7.320000
4707 0 3 -0.585000 95.920974 24.140000 6.360000
4708 0 4 0.435000 95.920974 24.140000 7.320000
4709 0 3 -0.585000 17.216585 17.040000 6.360000
4710 0 4 0.435000 17.216585 17.040000 7.320000
4711 0 3 -0.585000 132.813656 11.360000 6.360000
4712 0 4 0.435000 132.813656 11.360000 7.320000
4713 0 3 -0.585000 88.542437 32.660000 6.360000
4714 0 4 0.435000 88.542437 32.660000 7.320000
4715 0 3 -0.585000 84.853169 14.910000 6.360000
4716 0 4 0.435000 84.853169 14.910000 7.320000
4717 0 3 -0.585000 31.973658 36.920000 6.360000
4718 0 4 0.435000 31.973658 36.920000 7.320000
4719 0 3 -0.585000 110.678047 12.780000 6.360000
4720 0 4 0.435000 110.678047 12.780000 7.320000
4721 0 3 -0.585000 60.258048 36.210000 6.360000
4722 0 4 0.435000 60.258048 36.210000 7.320000
4723 0 3 -0.585000 145.111217 28.400000 6.360000
4724 0 4 0.435000 145.111217 28.400000 7.320000
4725 0 3 -0.585000 18.446341 6.390000 13.640000
4726 0 4 0.435000 18.446341 6.390000 12.680000
4727 0 3 -0.585000 65.177072 17.750000 13.640000
4728 0 4 0.435000 65.177072 17.750000 12.680000
4729 0 3 -0.585000 66.406828 12.780000 13.640000
4730 0 4 0.435000 66.406828 12.780000 12.680000
4731 0 3 -0.585000 54.109267 15.620000 13.640000
4732 0 4 0.435000 54.109267 15.620000 12.680000
4733 0 3 -0.585000 89.772193 22.010000 13.640000
4734 0 4 0.435000 89.772193 22.010000 12.680000
4735 0 3 -0.585000 83.623413 0.000000 13.640000
4736 0 4 0.435000 83.623413 0.000000 12.680000
4737 0 3 -0.585000 95.920974 36.920000 13.640000
4738 0 4 0.435000 95.920974 36.920000 12.680000
4739 0 3 -0.585000 92.231706 31.950000 13.640000
4740 0 4 0.435000 92.231706 31.950000 12.680000
4741 0 3 -0.585000 13.527317 10.650000 13.640000
4742 0 4 0.435000 13.527317 10.650000 12.680000
4743 0 3 -0.585000 92.231706 6.390000 13.640000
4744 0 4 0.435000 92.231706 6.390000 12.680000
4745 0 3 -0.585000 148.800485 39.050000 13.640000
4746 0 4 0.435000 148.800485 39.050000 12.680000
4747 0 3 -0.585000 44.271219 29.820000 13.640000
4748 0 4 0.435000 44.271219 29.820000 12.680000
4749 0 3 -0.585000 109.448291 23.430000 13.640000
4750 0 4 0.435000 109.448291 23.430000 12.680000
4751 0 3 -0.585000 28.284390 39.050000 13.640000
4752 0 4 0.435000 28.284390 39.050000 12.680000
4753 0 3 -0.585000 97.150730 30.530000 13.640000
4754 0 4 0.435000 97.150730 30.530000 12.680000
4755 0 3 -0.585000 77.474633 10.650000 13.640000
4756 0 4 0.435000 77.474633 10.650000 12.680000
4757 0 3 -0.585000 24.595121 38.340000 13.640000
4758 0 4 0.435000 24.595121 38.340000 12.680000
4759 0 3 -0.585000 142.651705 4.260000 13.640000
4760 0 4 0.435000 142.651705 4.260000 12.680000
4761 0 3 -0.585000 50.419999 19.170000 13.640000
4762 0 4 0.435000 50.419999 19.170000 12.680000
4763 0 3 -0.585000 56.568779 0.000000 13.640000
4764 0 4 0.435000 56.568779 0.000000 12.680000
4765 0 3 -0.585000 63.947316 36.920000 13.640000
4766 0 4 0.435000 63.947316 36.920000 12.680000
4767 0 3 -0.585000 115.597071 24.140000 13.640000
4768 0 4 0.435000 115.597071 24.140000 12.680000
4769 0 3 -0.585000 84.853169 13.490000 13.640000
4770 0 4 0.435000 84.853169 13.490000 12.680000
4771 0 3 -0.585000 30.743902 0.710000 13.640000
4772 0 4 0.435000 30.743902 0.710000 12.680000
4773 0 3 -0.585000 86.082925 7.100000 13.640000
4774 0 4 0.435000 86.082925 7.100000 12.680000
4775 0 3 -0.585000 30.743902 31.950000 13.640000
4776 0 4 0.435000 30.743902 31.950000 12.680000
4777 0 3 -0.585000 36.892682 32.660000 13.640000
4778 0 4 0.435000 36.892682 32.660000 12.680000
4779 0 3 -0.585000 54.109267 17.040000 13.640000
4780 0 4 0.435000 54.109267 17.040000 12.680000
4781 0 3 -0.585000 59.028292 7.100000 13.640000
4782 0 4 0.435000 59.028292 7.100000 12.680000
4783 0 3 -0.585000 33.203414 10.650000 13.640000
4784 0 4 0.435000 33.203414 10.650000 12.680000
4785 0 3 -0.585000 115.597071 34.080000 13.640000
4786 0 4 0.435000 115.597071 34.080000 12.680000
4787 0 3 -0.585000 73.785364 24.140000 13.640000
4788 0 4 0.435000 73.785364 24.140000 12.680000
4789 0 3 -0.585000 91.001949 38.340000 13.640000
4790 0 4 0.435000 91.001949 38.340000 12.680000
4791 0 3 -0.585000 140.192192 7.100000 13.640000
4792 0 4 0.435000 140.192192 7.100000 12.680000
4793 0 3 -0.585000 124.205363 26.270000 13.640000
4794 0 4 0.435000 124.205363 26.270000 12.680000
4795 0 3 -0.585000 20.905853 0.710000 13.640000
4796 0 4 0.435000 20.905853 0.710000 12.680000
4797 0 3 -0.585000 28.284390 34.790000 13.640000
4798 0 4 0.435000 28.284390 34.790000 12.680000
4799 0 3 -0.585000 127.894632 11.360000 13.640000
4800 0 4 0.435000 127.894632 11.360000 12.680000
4801 0 3 -0.585000 126.664876 36.210000 13.640000
4802 0 4 0.435000 126.664876 36.210000 12.680000
4803 0 3 -0.585000 72.555608 17.750000 13.640000
4804 0 4 0.435000 72.555608 17.750000 12.680000
4805 0 3 -0.585000 110.678047 32.660000 13.640000
4806 0 4 0.435000 110.678047 32.660000 12.680000
4807 0 3 -0.585000 97.150730 31.950000 13.640000
4808 0 4 0.435000 97.150730 31.950000 12.680000
4809 0 3 -0.585000 125.435119 4.260000 13.640000
4810 0 4 0.435000 125.435119 4.260000 12.680000
4811 0 3 -0.585000 24.595121 2.840000 13.640000
4812 0 4 0.435000 24.595121 2.840000 12.680000
4813 0 3 -0.585000 114.367315 4.970000 13.640000
4814 0 4 0.435000 114.367315 4.970000 12.680000
4815 0 3 -0.585000 81.163901 25.560000 13.640000
4816 0 4 0.435000 81.163901 25.560000 12.680000
4817 0 3 -0.585000 71.325852 7.100000 13.640000
4818 0 4 0.435000 71.325852 7.100000 12.680000
4819 0 3 -0.585000 19.676097 29.820000 13.640000
4820 0 4 0.435000 19.676097 29.820000 12.680000
4821 0 3 -0.585000 56.568779 21.300000 13.640000
4822 0 4 0.435000 56.568779 21.300000 12.680000
4823 0 3 -0.585000 4.919024 2.840000 13.640000
4824 0 4 0.435000 4.919024 2.840000 12.680000
4825 0 3 -0.585000 40.581950 9.230000 13.640000
4826 0 4 0.435000 40.581950 9.230000 12.680000
4827 0 3 -0.585000 127.894632 4.260000 13.640000
4828 0 4 0.435000 127.894632 4.260000 12.680000
4829 0 3 -0.585000 99.610242 0.710000 13.640000
4830 0 4 0.435000 99.610242 0.710000 12.680000
4831 0 3 -0.585000 119.286339 19.170000 13.640000
4832 0 4 0.435000 119.286339 19.170000 12.680000
4833 0 3 -0.585000 106.988778 22.010000 13.640000
4834 0 4 0.435000 106.988778 22.010000 12.680000
4835 0 3 -0.585000 73.785364 29.820000 13.640000
4836 0 4 0.435000 73.785364 29.820000 12.680000
4837 0 3 -0.585000 19.676097 17.040000 13.640000
4838 0 4 0.435000 19.676097 17.040000 12.680000
4839 0 3 -0.585000 77.474633 30.530000 13.640000
4840 0 4 0.435000 77.474633 30.530000 12.680000
4841 0 3 -0.585000 23.365365 19.170000 13.640000
4842 0 4 0.435000 23.365365 19.170000 12.680000
4843 0 3 -0.585000 55.339023 23.430000 13.640000
4844 0 4 0.435000 55.339023 23.430000 12.680000
4845 0 3 -0.585000 103.299510 28.400000 13.640000
4846 0 4 0.435000 103.299510 28.400000 12.680000
4847 0 3 -0.585000 23.365365 34.790000 13.640000
4848 0 4 0.435000 23.365365 34.790000 12.680000
4849 0 3 -0.585000 56.568779 8.520000 13.640000
4850 0 4 0.435000 56.568779 8.520000 12.680000
4851 0 3 -0.585000 131.583900 14.910000 13.640000
4852 0 4 0.435000 131.583900 14.910000 12.680000
4853 0 3 -0.585000 111.907803 14.910000 13.640000
4854 0 4 0.435000 111.907803 14.910000 12.680000
4855 0 3 -0.585000 54.109267 11.360000 13.640000
4856 0 4 0.435000 54.109267 11.360000 12.680000
4857 0 3 -0.585000 41.811706 12.780000 13.640000
4858 0 4 0.435000 41.811706 12.780000 12.680000
4859 0 3 -0.585000 98.380486 0.000000 13.640000
4860 0 4 0.435000 98.380486 0.000000 12.680000
4861 0 3 -0.585000 143.881461 13.490000 13.640000
4862 0 4 0.435000 143.881461 13.490000 12.680000
4863 0 3 -0.585000 13.527317 22.010000 13.640000
4864 0 4 0.435000 13.527317 22.010000 12.680000
4865 0 3 -0.585000 77.474633 19.170000 13.640000
4866 0 4 0.435000 77.474633 19.170000 12.680000
4867 0 3 -0.585000 30.743902 22.010000 13.640000
4868 0 4 0.435000 30.743902 22.010000 12.680000
4869 0 3 -0.585000 60.258048 2.130000 13.640000
4870 0 4 0.435000 60.258048 2.130000 12.680000
4871 0 3 -0.585000 125.435119 0.000000 13.640000
4872 0 4 0.435000 125.435119 0.000000 12.680000
4873 0 3 -0.585000 120.516095 25.560000 13.640000
4874 0 4 0.435000 120.516095 25.560000 12.680000
4875 0 3 -0.585000 60.258048 17.750000 13.640000
4876 0 4 0.435000 60.258048 17.750000 12.680000
4877 0 3 -0.585000 57.798535 17.750000 13.640000
4878 0 4 0.435000 57.798535 17.750000 12.680000
4879 0 3 -0.585000 70.096096 6.390000 13.640000
4880 0 4 0.435000 70.096096 6.390000 12.680000
4881 0 3 -0.585000 78.704389 29.820000 13.640000
4882 0 4 0.435000 78.704389 29.820000 12.680000
4883 0 3 -0.585000 118.056583 34.080000 13.640000
4884 0 4 0.435000 118.056583 34.080000 12.680000
4885 0 3 -0.585000 34.433170 28.400000 13.640000
4886 0 4 0.435000 34.433170 28.400000 12.680000
4887 0 3 -0.585000 39.352194 24.140000 13.640000
4888 0 4 0.435000 39.352194 24.140000 12.680000
4889 0 3 -0.585000 68.866340 2.840000 13.640000
4890 0 4 0.435000 68.866340 2.840000 12.680000
4891 0 3 -0.585000 62.717560 9.230000 13.640000
4892 0 4 0.435000 62.717560 9.230000 12.680000
4893 0 3 -0.585000 65.177072 4.970000 13.640000
4894 0 4 0.435000 65.177072 4.970000 12.680000
4895 0 3 -0.585000 29.514146 11.360000 13.640000
4896 0 4 0.435000 29.514146 11.360000 12.680000
4897 0 3 -0.585000 75.015120 10.650000 13.640000
4898 0 4 0.435000 75.015120 10.650000 12.680000
4899 0 3 -0.585000 109.448291 30.530000 13.640000
4900 0 4 0.435000 109.448291 30.530000 12.680000
4901 0 3 -0.585000 62.717560 19.170000 13.640000
4902 0 4 0.435000 62.717560 19.170000 12.680000
4903 0 3 -0.585000 147.570729 32.660000 13.640000
4904 0 4 0.435000 147.570729 32.660000 12.680000
4905 0 3 -0.585000 89.772193 36.210000 13.640000
4906 0 4 0.435000 89.772193 36.210000 12.680000
4907 0 3 -0.585000 145.111217 38.340000 13.640000
4908 0 4 0.435000 145.111217 38.340000 12.680000
4909 0 3 -0.585000 24.595121 8.520000 13.640000
4910 0 4 0.435000 24.595121 8.520000 12.680000
4911 0 3 -0.585000 25.824878 4.970000 13.640000
4912 0 4 0.435000 25.824878 4.970000 12.680000
4913 0 3 -0.585000 46.730731 12.780000 13.640000
4914 0 4 0.435000 46.730731 12.780000 12.680000
4915 0 3 -0.585000 71.325852 11.360000 13.640000
4916 0 4 0.435000 71.325852 11.360000 12.680000
4917 0 3 -0.585000 25.824878 31.950000 13.640000
4918 0 4 0.435000 25.824878 31.950000 12.680000
4919 0 3 -0.585000 14.757073 8.520000 13.640000
4920 0 4 0.435000 14.757073 8.520000 12.680000
4921 0 3 -0.585000 82.393657 34.790000 13.640000
4922 0 4 0.435000 82.393657 34.790000 12.680000
4923 0 3 -0.585000 145.111217 0.000000 13.640000
4924 0 4 0.435000 145.111217 0.000000 12.680000
4925 0 3 -0.585000 136.502924 27.690000 13.640000
4926 0 4 0.435000 136.502924 27.690000 12.680000
4927 0 3 -0.585000 67.636584 27.690000 13.640000
4928 0 4 0.435000 67.636584 27.690000 12.680000
4929 0 3 -0.585000 24.595121 21.300000 13.640000
4930 0 4 0.435000 24.595121 21.300000 12.680000
4931 0 3 -0.585000 136.502924 2.130000 13.640000
4932 0 4 0.435000 136.502924 2.130000 12.680000
4933 0 3 -0.585000 131.583900 4.970000 13.640000
4934 0 4 0.435000 131.583900 4.970000 12.680000
4935 0 3 -0.585000 41.811706 24.140000 13.640000
4936 0 4 0.435000 41.811706 24.140000 12.680000
4937 0 3 -0.585000 110.678047 21.300000 13.640000
4938 0 4 0.435000 110.678047 21.300000 12.680000
4939 0 3 -0.585000 25.824878 39.050000 13.640000
4940 0 4 0.435000 25.824878 39.050000 12.680000
4941 0 3 -0.585000 126.664876 39.050000 13.640000
4942 0 4 0.435000 126.664876 39.050000 12.680000
4943 0 3 -0.585000 143.881461 34.790000 13.640000
4944 0 4 0.435000 143.881461 34.790000 12.680000
4945 0 3 -0.585000 62.717560 14.910000 13.640000
4946 0 4 0.435000 62.717560 14.910000 12.680000
4947 0 3 -0.585000 56.568779 32.660000 13.640000
4948 0 4 0.435000 56.568779 32.660000 12.680000
4949 0 3 -0.585000 110.678047 15.620000 13.640000
4950 0 4 0.435000 110.678047 15.620000 12.680000
4951 0 3 -0.585000 61.487804 7.100000 13.640000
4952 0 4 0.435000 61.487804 7.100000 12.680000
4953 0 3 -0.585000 31.973658 8.520000 13.640000
4954 0 4 0.435000 31.973658 8.520000 12.680000
4955 0 3 -0.585000 132.813656 7.100000 13.640000
4956 0 4 0.435000 132.813656 7.100000 12.680000
4957 0 3 -0.585000 75.015120 23.430000 13.640000
4958 0 4 0.435000 75.015120 23.430000 12.680000
4959 0 3 -0.585000 125.435119 21.300000 13.640000
4960 0 4 0.435000 125.435119 21.300000 12.680000
4961 0 3 -0.585000 91.001949 29.820000 13.640000
4962 0 4 0.435000 91.001949 29.820000 12.680000
4963 0 3 -0.585000 148.800485 27.690000 13.640000
4964 0 4 0.435000 148.800485 27.690000 12.680000
4965 0 3 -0.585000 28.284390 31.950000 13.640000
4966 0 4 0.435000 28.284390 31.950000 12.680000
4967 0 3 -0.585000 105.759022 7.100000 13.640000
4968 0 4 0.435000 105.759022 7.100000 12.680000
4969 0 3 -0.585000 129.124388 39.050000 13.640000
4970 0 4 0.435000 129.124388 39.050000 12.680000
4971 0 3 -0.585000 71.325852 12.780000 13.640000
4972 0 4 0.435000 71.325852 12.780000 12.680000
4973 0 3 -0.585000 115.597071 12.780000 13.640000
4974 0 4 0.435000 115.597071 12.780000 12.680000
4975 0 3 -0.585000 137.732680 12.780000 13.640000
4976 0 4 0.435000 137.732680 12.780000 12.680000
4977 0 3 -0.585000 8.608293 13.490000 13.640000
4978 0 4 0.435000 8.608293 13.490000 12.680000
4979 0 3 -0.585000 106.988778 30.530000 13.640000
4980 0 4 0.435000 106.988778 30.530000 12.680000
4981 0 3 -0.585000 129.124388 0.710000 13.640000
4982 0 4 0.435000 129.124388 0.710000 12.680000
4983 0 3 -0.585000 45.500975 39.050000 13.640000
4984 0 4 0.435000 45.500975 39.050000 12.680000
4985 0 3 -0.585000 83.623413 2.840000 13.640000
4986 0 4 0.435000 83.623413 2.840000 12.680000
4987 0 3 -0.585000 125.435119 36.920000 13.640000
4988 0 4 0.435000 125.435119 36.920000 12.680000
4989 0 3 -0.585000 82.393657 22.010000 13.640000
4990 0 4 0.435000 82.393657 22.010000 12.680000
4991 0 3 -0.585000 13.527317 13.490000 13.640000
4992 0 4 0.435000 13.527317 13.490000 12.680000
4993 0 3 -0.585000 105.759022 34.080000 13.640000
4994 0 4 0.435000 105.759022 34.080000 12.680000
4995 0 3 -0.585000 73.785364 21.300000 13.640000
4996 0 4 0.435000 73.785364 21.300000 12.680000
4997 0 3 -0.585000 59.028292 24.140000 13.640000
4998 0 4 0.435000 59.028292 24.140000 12.680000
4999 0 3 -0.585000 22.135609 25.560000 13.640000
5000 0 4 0.435000 22.135609 25.560000 12.680000
5001 0 3 -0.585000 25.824878 23.430000 13.640000
5002 0 4 0.435000 25.824878 23.430000 12.680000
5003 0 3 -0.585000 71.325852 21.300000 13.640000
5004 0 4 0.435000 71.325852 21.300000 12.680000
5005 0 3 -0.585000 142.651705 7.100000 13.640000
5006 0 4 0.435000 142.651705 7.100000 12.680000
5007 0 3 -0.585000 137.732680 17.040000 13.640000
5008 0 4 0.435000 137.732680 17.040000 12.680000
5009 0 3 -0.585000 142.651705 24.140000 13.640000
5010 0 4 0.435000 142.651705 24.140000 12.680000
5011 0 3 -0.585000 134.043412 6.390000 13.640000
5012 0 4 0.435000 134.043412 6.390000 12.680000
5013 0 3 -0.585000 47.960487 31.950000 13.640000
5014 0 4 0.435000 47.960487 31.950000 12.680000
5015 0 3 -0.585000 47.960487 17.750000 13.640000
5016 0 4 0.435000 47.960487 17.750000 12.680000
5017 0 3 -0.585000 76.244877 38.340000 13.640000
5018 0 4 0.435000 76.244877 38.340000 12.680000
5019 0 3 -0.585000 66.406828 32.660000 13.640000
5020 0 4 0.435000 66.406828 32.660000 12.680000
5021 0 3 -0.585000 143.881461 6.390000 13.640000
5022 0 4 0.435000 143.881461 6.390000 12.680000
5023 0 3 -0.585000 87.312681 31.950000 13.640000
5024 0 4 0.435000 87.312681 31.950000 12.680000
5025 0 3 -0.585000 7.378536 4.260000 13.640000
5026 0 4 0.435000 7.378536 4.260000 12.680000
5027 0 3 -0.585000 81.163901 21.300000 13.640000
5028 0 4 0.435000 81.163901 21.300000 12.680000
5029 0 3 -0.585000 108.218534 15.620000 13.640000
5030 0 4 0.435000 108.218534 15.620000 12.680000
5031 0 3 -0.585000 70.096096 27.690000 13.640000
5032 0 4 0.435000 70.096096 27.690000 12.680000
5033 0 3 -0.585000 67.636584 39.050000 13.640000
5034 0 4 0.435000 67.636584 39.050000 12.680000
5035 0 3 -0.585000 67.636584 6.390000 13.640000
5036 0 4 0.435000 67.636584 6.390000 12.680000
5037 0 3 -0.585000 65.177072 9.230000 13.640000
5038 0 4 0.435000 65.177072 9.230000 12.680000
5039 0 3 -0.585000 103.299510 4.260000 13.640000
5040 0 4 0.435000 103.299510 4.260000 12.680000
5041 0 3 -0.585000 40.581950 22.010000 13.640000
5042 0 4 0.435000 40.581950 22.010000 12.680000
5043 0 3 -0.585000 57.798535 39.050000 13.640000
5044 0 4 0.435000 57.798535 39.050000 12.680000
5045 0 3 -0.585000 118.056583 2.840000 13.640000
5046 0 4 0.435000 118.056583 2.840000 12.680000
5047 0 3 -0.585000 71.325852 19.880000 13.640000
5048 0 4 0.435000 71.325852 19.880000 12.680000
5049 0 3 -0.585000 129.124388 34.790000 13.640000
5050 0 4 0.435000 129.124388 34.790000 12.680000
5051 0 3 -0.585000 89.772193 0.710000 13.640000
5052 0 4 0.435000 89.772193 0.710000 12.680000
5053 0 3 -0.585000 86.082925 8.520000 13.640000
5054 0 4 0.435000 86.082925 8.520000 12.680000
5055 0 3 -0.585000 94.691218 14.910000 13.640000
5056 0 4 0.435000 94.691218 14.910000 12.680000
5057 0 3 -0.585000 99.610242 2.130000 13.640000
5058 0 4 0.435000 99.610242 2.130000 12.680000
5059 0 3 -0.585000 124.205363 13.490000 13.640000
5060 0 4 0.435000 124.205363 13.490000 12.680000
5061 0 3 -0.585000 34.433170 29.820000 13.640000
5062 0 4 0.435000 34.433170 29.820000 12.680000
5063 0 3 -0.585000 76.244877 32.660000 13.640000
5064 0 4 0.435000 76.244877 32.660000 12.680000
5065 0 3 -0.585000 110.678047 38.340000 13.640000
5066 0 4 0.435000 110.678047 38.340000 12.680000
5067 0 3 -0.585000 31.973658 29.820000 13.640000
5068 0 4 0.435000 31.973658 29.820000 12.680000
5069 0 3 -0.585000 11.067805 4.970000 13.640000
5070 0 4 0.435000 11.067805 4.970000 12.680000
5071 0 3 -0.585000 61.487804 15.620000 13.640000
5072 0 4 0.435000 61.487804 15.620000 12.680000
5073 0 3 -0.585000 89.772193 19.170000 13.640000
5074 0 4 0.435000 89.772193 19.170000 12.680000
5075 0 3 -0.585000 114.367315 26.270000 13.640000
5076 0 4 0.435000 114.367315 26.270000 12.680000
5077 0 3 -0.585000 18.446341 26.270000 13.640000
5078 0 4 0.435000 18.446341 26.270000 12.680000
5079 0 3 -0.585000 72.555608 9.230000 13.640000
5080 0 4 0.435000 72.555608 9.230000 12.680000
5081 0 3 -0.585000 65.177072 27.690000 13.640000
5082 0 4 0.435000 65.177072 27.690000 12.680000
5083 0 3 -0.585000 140.192192 34.080000 13.640000
5084 0 4 0.435000 140.192192 34.080000 12.680000
5085 0 3 -0.585000 61.487804 24.140000 13.640000
5086 0 4 0.435000 61.487804 24.140000 12.680000
5087 0 3 -0.585000 132.813656 34.080000 13.640000
5088 0 4 0.435000 132.813656 34.080000 12.680000
5089 0 3 -0.585000 67.636584 19.170000 13.640000
5090 0 4 0.435000 67.636584 19.170000 12.680000
5091 0 3 -0.585000 91.001949 19.880000 13.640000
5092 0 4 0.435000 91.001949 19.880000 12.680000
5093 0 3 -0.585000 120.516095 15.620000 13.640000
5094 0 4 0.435000 120.516095 15.620000 12.680000
5095 0 3 -0.585000 116.826827 27.690000 13.640000
5096 0 4 0.435000 116.826827 27.690000 12.680000
5097 0 3 -0.585000 137.732680 36.920000 13.640000
5098 0 4 0.435000 137.732680 36.920000 12.680000
5099 0 3 -0.585000 94.691218 22.010000 13.640000
5100 0 4 0.435000 94.691218 22.010000 12.680000
5101 0 3 -0.585000 140.192192 19.880000 13.640000
5102 0 4 0.435000 140.192192 19.880000 12.680000
5103 0 3 -0.585000 132.813656 17.040000 13.640000
5104 0 4 0.435000 132.813656 17.040000 12.680000
5105 0 3 -0.585000 113.137559 12.780000 13.640000
5106 0 4 0.435000 113.137559 12.780000 12.680000
5107 0 3 -0.585000 79.934145 6.390000 13.640000
5108 0 4 0.435000 79.934145 6.390000 12.680000
5109 0 3 -0.585000 93.461462 11.360000 13.640000
5110 0 4 0.435000 93.461462 11.360000 12.680000
5111 0 3 -0.585000 105.759022 25.560000 13.640000
5112 0 4 0.435000 105.759022 25.560000 12.680000
5113 0 3 -0.585000 56.568779 38.340000 13.640000
5114 0 4 0.435000 56.568779 38.340000 12.680000
5115 0 3 -0.585000 137.732680 15.620000 13.640000
5116 0 4 0.435000 137.732680 15.620000 12.680000
5117 0 3 -0.585000 119.286339 9.230000 13.640000
5118 0 4 0.435000 119.286339 9.230000 12.680000
5119 0 3 -0.585000 140.192192 15.620000 13.640000
5120 0 4 0.435000 140.192192 15.620000 12.680000
5121 0 3 -0.585000 146.340973 36.210000 13.640000
5122 0 4 0.435000 146.340973 36.210000 12.680000
5123 0 3 -0.585000 62.717560 34.790000 13.640000
5124 0 4 0.435000 62.717560 34.790000 12.680000
5125 0 3 -0.585000 134.043412 17.750000 13.640000
5126 0 4 0.435000 134.043412 17.750000 12.680000
5127 0 3 -0.585000 126.664876 4.970000 13.640000
5128 0 4 0.435000 126.664876 4.970000 12.680000
5129 0 3 -0.585000 129.124388 2.130000 13.640000
5130 0 4 0.435000 129.124388 2.130000 12.680000
5131 0 3 -0.585000 118.056583 19.880000 13.640000
5132 0 4 0.435000 118.056583 19.880000 12.680000
5133 0 3 -0.585000 135.273168 38.340000 13.640000
5134 0 4 0.435000 135.273168 38.340000 12.680000
5135 0 3 -0.585000 47.960487 6.390000 13.640000
5136 0 4 0.435000 47.960487 6.390000 12.680000
5137 0 3 -0.585000 18.446341 10.650000 13.640000
5138 0 4 0.435000 18.446341 10.650000 12.680000
5139 0 3 -0.585000 27.054634 2.840000 13.640000
5140 0 4 0.435000 27.054634 2.840000 12.680000
5141 0 3 -0.585000 146.340973 27.690000 13.640000
5142 0 4 0.435000 146.340973 27.690000 12.680000
5143 0 3 -0.585000 15.986829 27.690000 13.640000
5144 0 4 0.435000 15.986829 27.690000 12.680000
5145 0 3 -0.585000 19.676097 8.520000 13.640000
5146 0 4 0.435000 19.676097 8.520000 12.680000
5147 0 3 -0.585000 67.636584 34.790000 13.640000
5148 0 4 0.435000 67.636584 34.790000 12.680000
5149 0 3 -0.585000 137.732680 25.560000 13.640000
5150 0 4 0.435000 137.732680 25.560000 12.680000
5151 0 3 -0.585000 15.986829 6.390000 13.640000
5152 0 4 0.435000 15.986829 6.390000 12.680000
5153 0 3 -0.585000 78.704389 8.520000 13.640000
5154 0 4 0.435000 78.704389 8.520000 12.680000
5155 1 5 -0.834000 70.590420 38.600935 11.842323
5156 1 6 0.417000 71.515142 38.847313 11.862800
5157 1 6 0.417000 70.238359 38.920907 12.672927
5158 2 5 -0.834000 56.295635 12.769560 8.329465
5159 2 6 0.417000 56.516868 13.257357 7.536154
5160 2 6 0.417000 56.905962 13.096628 8.990343
5161 3 5 -0.834000 73.526197 24.278586 8.293596
5162 3 6 0.417000 72.709902 24.778178 8.310975
5163 3 6 0.417000 73.252847 23.378263 8.117728
5164 4 5 -0.834000 139.921611 1.502670 8.189318
5165 4 6 0.417000 139.100097 1.845882 8.540819
5166 4 6 0.417000 140.452384 2.280358 8.016943
5167 5 5 -0.834000 12.926109 9.927203 8.200643
5168 5 6 0.417000 12.158170 9.413811 7.949786
5169 5 6 0.417000 12.931090 10.665105 7.590965
5170 6 5 -0.834000 21.638003 15.636818 11.825811
5171 6 6 0.417000 20.809058 15.171842 11.712320
5172 6 6 0.417000 21.382976 16.522173 12.085311
5173 7 5 -0.834000 128.427519 21.481671 8.341335
5174 7 6 0.417000 128.730706 20.573807 8.331702
5175 7 6 0.417000 127.901317 21.567406 7.546356
5176 8 5 -0.834000 96.646832 35.752846 8.206355
5177 8 6 0.417000 96.987800 34.861417 8.279343
5178 8 6 0.417000 96.257685 35.931782 9.062380
5179 9 5 -0.834000 39.025758 4.355225 11.778421
5180 9 6 0.417000 38.850498 3.683022 12.436948
5181 9 6 0.417000 38.185797 4.484473 11.337974
5182 10 5 -0.834000 61.957832 27.159107 8.222424
5183 10 6 0.417000 62.423974 27.541756 8.965743
5184 10 6 0.417000 62.623503 26.653268 7.756333
5185 11 5 -0.834000 85.036316 21.424249 11.775358
5186 11 6 0.417000 84.711575 20.558676 11.527248
5187 11 6 0.417000 85.114735 21.897631 10.947112
5188 12 5 -0.834000 7.286681 32.833877 8.189418
5189 12 6 0.417000 7.354374 33.713106 8.561717
5190 12 6 0.417000 7.125126 32.266013 8.942852
5191 13 5 -0.834000 15.832251 27.210998 8.234640
5192 13 6 0.417000 15.403762 28.032107 8.476322
5193 13 6 0.417000 15.763887 26.665024 9.017883
5194 14 5 -0.834000 27.415680 30.060598 8.326856
5195 14 6 0.417000 27.757877 29.511793 9.032509
5196 14 6 0.417000 27.906397 30.879182 8.399987
5197 15 5 -0.834000 36.052174 9.906345 8.301089
5198 15 6 0.417000 36.247946 9.893603 7.364210
5199 15 6 0.417000 36.093291 10.831744 8.542288
5200 16 5 -0.834000 4.259226 30.016268 11.828938
5201 16 6 0.417000 3.766284 30.215098 12.624995
5202 16 6 0.417000 4.525485 30.871576 11.491618
5203 17 5 -0.834000 122.617903 7.215553 11.734865
5204 17 6 0.417000 123.088163 7.657210 12.441991
5205 17 6 0.417000 123.235567 7.208494 11.003652
5206 18 5 -0.834000 24.441388 24.271208 8.316303
5207 18 6 0.417000 24.791380 24.978303 8.858293
5208 18 6 0.417000 23.522922 24.201397 8.576646
5209 19 5 -0.834000 96.585942 4.377299 11.679477
5210 19 6 0.417000 96.695546 3.917988 10.846860
5211 19 6 0.417000 96.922625 3.767559 12.336055
5212 20 5 -0.834000 111.097134 32.916851 8.197936
5213 20 6 0.417000 111.404839 32.014423 8.113238
5214 20 6 0.417000 111.350813 33.174726 9.084152
5215 21 5 -0.834000 125.529500 1.511770 11.716046
5216 21 6 0.417000 126.036162 1.007082 12.352298
5217 21 6 0.417000 125.295779 0.877685 11.038150
5218 22 5 -0.834000 64.856151 24.247936 8.251288
5219 22 6 0.417000 64.916084 23.450146 8.776808
5220 22 6 0.417000 65.689940 24.290071 7.783044
5221 23 5 -0.834000 131.327261 32.823894 11.841405
5222 23 6 0.417000 132.015751 32.369598 12.327027
5223 23 6 0.417000 131.797670 33.360485 11.203427
5224 24 5 -0.834000 119.766575 4.299601 8.286469
5225 24 6 0.417000 118.851642 4.409110 8.545578
5226 24 6 0.417000 119.853846 3.364125 8.103439
5227 25 5 -0.834000 90.958288 7.068481 11.747810
5228 25 6 0.417000 90.417425 7.134054 12.534829
5229 25 6 0.417000 91.632742 7.737749 11.863672
5230 26 5 -0.834000 38.906986 15.800128 11.752586
5231 26 6 0.417000 38.595425 15.238794 11.042609
5232 26 6 0.417000 39.748113 15.420668 12.007042
5233 27 5 -0.834000 1.410201 24.206594 11.826237
5234 27 6 0.417000 1.067776 23.712562 11.081314
5235 27 6 0.417000 2.261825 23.808732 12.007000
5236 28 5 -0.834000 47.521379 18.576413 11.814436
5237 28 6 0.417000 47.646876 18.917925 10.929082
5238 28 6 0.417000 46.948680 19.215101 12.239084
5239 29 5 -0.834000 56.283851 10.066438 11.767049
5240 29 6 0.417000 56.374901 10.947088 12.130913
5241 29 6 0.417000 57.164860 9.695143 11.813906
5242 30 5 -0.834000 145.721702 35.730378 8.244034
5243 30 6 0.417000 145.949880 36.447292 7.652255
5244 30 6 0.417000 144.827288 35.492773 7.999496
5245 31 5 -0.834000 108.230249 29.964387 11.685544
5246 31 6 0.417000 108.637820 30.791837 11.429724
5247 31 6 0.417000 107.667474 30.192708 12.425399
5248 32 5 -0.834000 38.865616 18.490038 8.290543
5249 32 6 0.417000 38.056860 18.194150 7.872696
5250 32 6 0.417000 39.563995 18.121242 7.749722
5251 33 5 -0.834000 70.626726 32.939479 11.680598
5252 33 6 0.417000 70.814710 33.778636 12.100965
5253 33 6 0.417000 70.950643 32.283803 12.298174
5254 34 5 -0.834000 64.904890 10.060315 8.292211
5255 34 6 0.417000 65.819094 10.331726 8.374666
5256 34 6 0.417000 64.402108 10.859145 8.451308
5257 35 5 -0.834000 90.769934 18.622971 8.340683
5258 35 6 0.417000 89.878531 18.850441 8.076315
5259 35 6 0.417000 91.259958 19.441412 8.261540
5260 36 5 -0.834000 7.157838 30.066334 8.263945
5261 36 6 0.417000 6.914847 29.966858 9.184430
5262 36 6 0.417000 7.189861 31.012874 8.125131
5263 37 5 -0.834000 145.619370 4.381354 8.333216
5264 37 6 0.417000 146.173818 4.446211 7.555648
5265 37 6 0.417000 145.747599 3.485614 8.645366
5266 38 5 -0.834000 125.540318 24.186159 11.783208
5267 38 6 0.417000 125.227718 24.022267 12.672957
5268 38 6 0.417000 126.469933 23.959587 11.809900
5269 39 5 -0.834000 148.546838 7.096011 8.320433
5270 39 6 0.417000 149.041197 7.574133 7.654671
5271 39 6 0.417000 148.899450 7.410260 9.152986
5272 40 5 -0.834000 27.337703 9.924698 11.770458
5273 40 6 0.417000 27.643084 10.744812 11.382660
5274 40 6 0.417000 27.099625 9.378877 11.021039
5275 41 5 -0.834000 139.930521 7.198875 8.208252
5276 41 6 0.417000 139.289876 7.293948 8.913069
5277 41 6 0.417000 140.617601 7.830221 8.421688
5278 42 5 -0.834000 33.205264 15.760924 8.342982
5279 42 6 0.417000 33.402889 15.864004 9.273869
5280 42 6 0.417000 33.281025 16.644329 7.982305
5281 43 5 -0.834000 148.656295 1.479556 11.707952
5282 43 6 0.417000 148.294432 0.766932 11.181213
5283 43 6 0.417000 148.073427 1.538347 12.464946
5284 44 5 -0.834000 125.468904 7.095089 11.725852
5285 44 6 0.417000 126.070696 7.798223 11.481555
5286 44 6 0.417000 125.961395 6.564433 12.352021
5287 45 5 -0.834000 76.373603 35.754531 8.181313
5288 45 6 0.417000 75.575540 35.277579 8.409006
5289 45 6 0.417000 77.071069 35.289921 8.643818
5290 46 5 -0.834000 102.495700 24.326084 8.159465
5291 46 6 0.417000 103.157553 23.913672 7.604399
5292 46 6 0.417000 101.851965 23.635790 8.318624
5293 47 5 -0.834000 128.431380 38.589842 8.309068
5294 47 6 0.417000 127.747123 38.131434 8.796803
5295 47 6 0.417000 128.002325 39.378659 7.977537
5296 48 5 -0.834000 79.347618 35.641799 8.306900
5297 48 6 0.417000 79.767912 36.476132 8.515404
5298 48 6 0.417000 80.005950 34.981077 8.522020
5299 49 5 -0.834000 33.138225 24.226910 8.262770
5300 49 6 0.417000 33.234562 23.489651 7.659943
5301 49 6 0.417000 32.511442 23.920668 8.918202
5302 50 5 -0.834000 21.726987 4.204286 8.294009
5303 50 6 0.417000 21.990751 4.512747 9.160907
5304 50 6 0.417000 21.704583 3.250791 8.375113
5305 51 5 -0.834000 59.099455 30.077842 11.657673
5306 51 6 0.417000 59.001076 29.153373 11.429835
5307 51 6 0.417000 60.036087 30.250303 11.561710
5308 52 5 -0.834000 10.069357 7.123760 11.791814
5309 52 6 0.417000 9.663943 7.944905 11.513258
5310 52 6 0.417000 10.632211 7.370811 12.525567
5311 53 5 -0.834000 44.645261 10.050838 8.167484
5312 53 6 0.417000 45.172901 10.616001 8.731770
5313 53 6 0.417000 43.782612 10.035854 8.582027
5314 54 5 -0.834000 131.258541 10.073561 11.769526
5315 54 6 0.417000 131.612392 9.507966 12.455911
5316 54 6 0.417000 130.591694 10.599016 12.211616
5317 55 5 -0.834000 148.588690 32.904599 11.711501
5318 55 6 0.417000 149.226462 33.239811 12.341669
5319 55 6 0.417000 148.770046 33.388709 10.905908
5320 56 5 -0.834000 41.810091 38.586948 11.723424
5321 56 6 0.417000 42.339711 38.147891 12.388979
5322 56 6 0.417000 42.148224 38.256429 10.891165
5323 57 5 -0.834000 145.635696 30.096424 11.650377
5324 57 6 0.417000 145.683705 30.096710 12.606372
5325 57 6 0.417000 145.014978 29.398357 11.441467
5326 58 5 -0.834000 21.590125 35.645129 11.733672
5327 58 6 0.417000 21.122338 36.438767 11.473775
5328 58 6 0.417000 21.372256 35.005307 11.055887
5329 59 5 -0.834000 105.364138 12.883250 8.337152
5330 59 6 0.417000 104.538929 13.347210 8.478584
5331 59 6 0.417000 105.670432 13.192760 7.484733
5332 60 5 -0.834000 79.245227 7.239915 11.817089
5333 60 6 0.417000 79.509960 7.535749 12.688083
5334 60 6 0.417000 78.294239 7.147058 11.873935
5335 61 5 -0.834000 148.634829 24.276112 8.170412
5336 61 6 0.417000 149.565734 24.199286 8.379568
5337 61 6 0.417000 148.568826 23.987910 7.260019
5338 62 5 -0.834000 13.025607 9.919983 11.848229
5339 62 6 0.417000 13.690443 9.604455 12.460328
5340 62 6 0.417000 13.399695 9.756656 10.982426
5341 63 5 -0.834000 79.256419 4.281581 8.240885
5342 63 6 0.417000 78.308220 4.343140 8.356475
5343 63 6 0.417000 79.565729 3.834718 9.028839
5344 64 5 -0.834000 148.485522 15.644180 8.237896
5345 64 6 0.417000 149.198144 15.005503 8.260099
5346 64 6 0.417000 147.713298 15.151905 8.516407
5347 65 5 -0.834000 87.946651 1.436328 8.264979
5348 65 6 0.417000 88.154496 2.361999 8.392118
5349 65 6 0.417000 88.117061 1.277418 7.336572
5350 66 5 -0.834000 38.988600 32.880489 8.242743
5351 66 6 0.417000 39.307758 32.768341 9.138172
5352 66 6 0.417000 38.140395 33.312690 8.342657
5353 67 5 -0.834000 87.992643 4.320813 8.201706
5354 67 6 0.417000 88.024807 4.318120 9.158361
5355 67 6 0.417000 88.878764 4.562751 7.932471
5356 68 5 -0.834000 139.950615 32.892316 11.780311
5357 68 6 0.417000 139.181315 32.331085 11.683207
5358 68 6 0.417000 140.541222 32.613103 11.080700
5359 69 5 -0.834000 73.511082 38.532682 11.783601
5360 69 6 0.417000 73.089214 39.366031 11.574339
5361 69 6 0.417000 73.060827 37.891121 11.234144
5362 70 5 -0.834000 73.468689 29.966112 8.226601
5363 70 6 0.417000 74.386965 30.141125 8.020759
5364 70 6 0.417000 73.499618 29.386295 8.987580
5365 71 5 -0.834000 24.444544 10.026356 8.347176
5366 71 6 0.417000 24.788775 10.901213 8.527065
5367 71 6 0.417000 24.123203 10.075344 7.446858
5368 72 5 -0.834000 142.873115 38.484914 11.756735
5369 72 6 0.417000 143.543800 38.417883 11.077088
5370 72 6 0.417000 142.583687 37.583525 11.898017
5371 73 5 -0.834000 139.871942 4.381977 11.779277
5372 73 6 0.417000 139.900154 5.330096 11.650802
5373 73 6 0.417000 140.628040 4.051462 11.294192
5374 74 5 -0.834000 114.002932 27.048711 8.262749
5375 74 6 0.417000 114.050335 26.154301 7.925086
5376 74 6 0.417000 113.157070 27.092369 8.708667
5377 75 5 -0.834000 82.158244 18.549385 11.746579
5378 75 6 0.417000 82.474322 18.391751 12.636229
5379 75 6 0.417000 81.948769 19.483203 11.728252
5380 76 5 -0.834000 30.321817 38.549629 8.315509
5381 76 6 0.417000 31.234838 38.262184 8.314989
5382 76 6 0.417000 30.014702 38.374904 7.425912
5383 77 5 -0.834000 67.760681 38.520840 11.747658
5384 77 6 0.417000 68.559188 39.003722 11.534483
5385 77 6 0.417000 67.072177 39.185798 11.752519
5386 78 5 -0.834000 18.826665 18.665760 11.673339
5387 78 6 0.417000 18.096708 19.282827 11.724545
5388 78 6 0.417000 18.454995 17.888421 11.256403
5389 79 5 -0.834000 73.490439 21.343707 8.179565
5390 79 6 0.417000 73.637848 21.002063 9.061484
5391 79 6 0.417000 74.326287 21.217507 7.730496
5392 80 5 -0.834000 134.212285 12.900202 8.307249
5393 80 6 0.417000 134.205629 13.034052 7.359477
5394 80 6 0.417000 134.496418 11.993066 8.419518
5395 81 5 -0.834000 148.610412 9.965369 11.730229
5396 81 6 0.417000 148.017741 10.005779 12.480789
5397 81 6 0.417000 148.939088 9.066369 11.732106
5398 82 5 -0.834000 79.296388 30.004353 8.166227
5399 82 6 0.417000 79.843227 29.916235 8.946890
5400 82 6 0.417000 78.419703 30.183312 8.506270
5401 83 5 -0.834000 125.485446 27.131249 11.764878
5402 83 6 0.417000 125.077074 26.373596 12.183717
5403 83 6 0.417000 125.564634 27.778920 12.465223
5404 84 5 -0.834000 114.026564 35.801910 11.731916
5405 84 6 0.417000 113.556349 35.172969 12.279239
5406 84 6 0.417000 114.822727 36.000739 12.224687
5407 85 5 -0.834000 131.168979 32.951675 8.182682
5408 85 6 0.417000 130.311574 32.663641 8.495931
5409 85 6 0.417000 131.566986 32.163196 7.813734
5410 86 5 -0.834000 108.255370 27.066503 8.239634
5411 86 6 0.417000 107.994456 27.535650 7.447133
5412 86 6 0.417000 108.075913 27.680255 8.951909
5413 87 5 -0.834000 4.285308 21.381327 11.752852
5414 87 6 0.417000 4.350378 21.647348 12.670038
5415 87 6 0.417000 3.353132 21.210757 11.618000
5416 88 5 -0.834000 134.139487 1.485079 11.756499
5417 88 6 0.417000 134.902969 1.124672 12.207536
5418 88 6 0.417000 134.174912 2.424299 11.937725
5419 89 5 -0.834000 18.842503 4.320154 11.759303
5420 89 6 0.417000 19.056331 3.459256 11.399631
5421 89 6 0.417000 17.927143 4.460752 11.517266
5422 90 5 -0.834000 67.856269 27.232874 8.189582
5423 90 6 0.417000 68.555922 27.044643 7.564052
5424 90 6 0.417000 67.149417 26.635132 7.946073
5425 91 5 -0.834000 137.105020 21.507842 8.269080
5426 91 6 0.417000 136.822510 20.936939 7.554595
5427 91 6 0.417000 138.059725 21.438785 8.268277
5428 92 5 -0.834000 99.526380 15.707220 11.795724
5429 92 6 0.417000 99.818176 16.071978 12.631211
5430 92 6 0.417000 98.605518 15.960515 11.731804
5431 93 5 -0.834000 145.692178 15.727810 11.829705
5432 93 6 0.417000 144.935355 15.174265 12.022162
5433 93 6 0.417000 145.921437 15.514835 10.925098
5434 94 5 -0.834000 102.482865 7.242160 11.733832
5435 94 6 0.417000 102.574473 7.084408 10.794176
5436 94 6 0.417000 103.374683 7.413249 12.036521
5437 95 5 -0.834000 62.061439 21.345876 11.848601
5438 95 6 0.417000 61.903831 20.688319 12.526105
5439 95 6 0.417000 62.073682 20.849264 11.030397
5440 96 5 -0.834000 93.751157 15.685654 8.289199
5441 96 6 0.417000 94.121275 15.110030 8.958454
5442 96 6 0.417000 92.810055 15.513254 8.318137
5443 97 5 -0.834000 67.773909 27.155596 11.754242
5444 97 6 0.417000 66.919216 27.577292 11.843142
5445 97 6 0.417000 68.354208 27.668398 12.316841
5446 98 5 -0.834000 131.298062 4.275228 11.660309
5447 98 6 0.417000 131.100602 4.840820 10.913752
5448 98 6 0.417000 131.817335 3.561495 11.289941
5449 99 5 -0.834000 4.411042 7.217117 8.228314
5450 99 6 0.417000 4.217946 7.025025 7.310683
5451 99 6 0.417000 4.087322 8.108203 8.360235
5452 100 5 -0.834000 59.167076 24.320957 8.280015
5453 100 6 0.417000 58.217546 24.356406 8.395637
5454 100 6 0.417000 59.497098 23.975429 9.109429
5455 101 5 -0.834000 82.259722 21.353649 8.205105
5456 101 6 0.417000 81.437261 21.732918 8.514852
5457 101 6 0.417000 82.000001 20.544465 7.764654
5458 102 5 -0.834000 119.735341 15.781737 8.290643
5459 102 6 0.417000 120.596803 15.410155 8.100796
5460 102 6 0.417000 119.742311 15.933235 9.235752
5461 103 5 -0.834000 110.993552 9.948064 11.782086
5462 103 6 0.417000 111.423991 9.461433 11.079133
5463 103 6 0.417000 111.189864 10.865795 11.593767
5464 104 5 -0.834000 1.509134 15.726176 11.737701
5465 104 6 0.417000 0.840800 15.966603 12.379383
5466 104 6 0.417000 1.035578 15.223700 11.074757
5467 105 5 -0.834000 110.990803 7.063092 11.711682
5468 105 6 0.417000 110.104103 6.916436 12.041055
5469 105 6 0.417000 110.964359 7.942499 11.334621
5470 106 5 -0.834000 139.946317 29.933831 11.736064
5471 106 6 0.417000 140.776166 30.084697 11.283490
5472 106 6 0.417000 140.197045 29.744228 12.640176
5473 107 5 -0.834000 47.613843 15.769041 11.750982
5474 107 6 0.417000 47.895441 16.668938 11.915666
5475 107 6 0.417000 46.658207 15.817464 11.725560
5476 108 5 -0.834000 18.729369 10.053488 8.261326
5477 108 6 0.417000 19.032953 10.769650 7.703491
5478 108 6 0.417000 18.542973 9.338115 7.653272
5479 109 5 -0.834000 59.099828 4.311738 11.842553
5480 109 6 0.417000 59.504155 5.023048 12.339332
5481 109 6 0.417000 59.023046 4.654347 10.952072
5482 110 5 -0.834000 93.664990 15.690599 11.770792
5483 110 6 0.417000 94.167932 15.297363 11.057597
5484 110 6 0.417000 94.210604 16.414332 12.078603
5485 111 5 -0.834000 15.947846 24.265701 8.188752
5486 111 6 0.417000 15.255285 24.044517 7.566121
5487 111 6 0.417000 15.482095 24.520687 8.985175
5488 112 5 -0.834000 85.030795 4.279278 11.718683
5489 112 6 0.417000 85.084989 4.083769 10.783231
5490 112 6 0.417000 85.833738 4.764185 11.909421
5491 113 5 -0.834000 10.006265 9.950096 8.342197
5492 113 6 0.417000 9.767571 10.093381 7.426377
5493 113 6 0.417000 9.884128 10.803395 8.758363
5494 114 5 -0.834000 44.694334 21.412535 11.695110
5495 114 6 0.417000 45.363302 21.676734 12.326705
5496 114 6 0.417000 44.528313 20.490807 11.892811
5497 115 5 -0.834000 136.996757 18.583049 8.187104
5498 115 6 0.417000 136.403168 18.343928 8.898937
5499 115 6 0.417000 137.589397 17.835604 8.107505
5500 116 5 -0.834000 76.460107 12.925571 11.738802
5501 116 6 0.417000 76.994303 12.296676 11.253665
5502 116 6 0.417000 75.574027 12.565197 11.703786
5503 117 5 -0.834000 4.266845 24.254649 11.841908
5504 117 6 0.417000 3.772605 23.951774 11.080183
5505 117 6 0.417000 3.624143 24.278946 12.550834
5506 118 5 -0.834000 85.115906 32.923723 11.825988
5507 118 6 0.417000 84.766263 32.475021 12.595825
5508 118 6 0.417000 84.959754 32.316474 11.102734
5509 119 5 -0.834000 96.646624 27.176983 8.231106
5510 119 6 0.417000 96.131594 27.192825 7.424431
5511 119 6 0.417000 96.625458 26.261993 8.511420
5512 120 5 -0.834000 1.412002 18.566845 11.728283
5513 120 6 0.417000 1.580960 19.426887 11.343558
5514 120 6 0.417000 0.488050 18.592542 11.977050
5515 121 5 -0.834000 137.031080 1.526022 8.310021
5516 121 6 0.417000 137.289577 1.575185 9.230344
5517 121 6 0.417000 137.193873 2.404984 7.967740
5518 122 5 -0.834000 33.252513 32.809455 8.214655
5519 122 6 0.417000 33.636997 33.012698 7.361955
5520 122 6 0.417000 32.362676 32.519543 8.013723
5521 123 5 -0.834000 15.958222 29.977049 11.761916
5522 123 6 0.417000 15.332601 30.363864 12.374456
5523 123 6 0.417000 15.547843 30.079254 10.903210
5524 124 5 -0.834000 61.927011 7.221602 8.306247
5525 124 6 0.417000 61.383731 8.001269 8.421128
5526 124 6 0.417000 62.732412 7.417650 8.784918
5527 125 5 -0.834000 99.576651 12.781906 8.178749
5528 125 6 0.417000 100.451758 12.577530 8.508372
5529 125 6 0.417000 99.008178 12.128089 8.585682
5530 126 5 -0.834000 30.271062 10.075814 11.664323
5531 126 6 0.417000 31.109874 10.482854 11.880993
5532 126 6 0.417000 30.155484 10.247142 10.729700
5533 127 5 -0.834000 59.048075 18.621767 8.306952
5534 127 6 0.417000 59.290414 17.891949 8.876926
5535 127 6 0.417000 59.852929 18.834998 7.834750
5536 128 5 -0.834000 30.290772 21.425345 8.184014
5537 128 6 0.417000 29.949038 22.251732 8.525385
5538 128 6 0.417000 30.859999 21.682395 7.458660
5539 129 5 -0.834000 87.917704 9.929531 8.201322
5540 129 6 0.417000 87.950266 9.249519 8.874193
5541 129 6 0.417000 88.827868 10.038030 7.925530
5542 130 5 -0.834000 88.053008 10.017225 11.772604
5543 130 6 0.417000 88.787020 10.336071 12.297768
5544 130 6 0.417000 88.144960 9.064534 11.785079
5545 131 5 -0.834000 70.736462 4.311786 8.206770
5546 131 6 0.417000 71.677026 4.488983 8.193666
5547 131 6 0.417000 70.593410 3.720095 7.468075
5548 132 5 -0.834000 113.880322 1.400880 11.714066
5549 132 6 0.417000 114.104095 2.311790 11.523278
5550 132 6 0.417000 114.660168 0.904927 11.464862
5551 133 5 -0.834000 87.904998 27.106860 11.699187
5552 133 6 0.417000 87.014964 27.358888 11.945264
5553 133 6 0.417000 87.893825 27.090328 10.742195
5554 134 5 -0.834000 145.739241 12.789872 11.752132
5555 134 6 0.417000 145.890229 13.185943 10.893900
5556 134 6 0.417000 145.944112 11.863111 11.628139
5557 135 5 -0.834000 4.379882 18.531501 8.187399
5558 135 6 0.417000 3.480877 18.313612 8.433461
5559 135 6 0.417000 4.908991 18.242131 8.930730
5560 136 5 -0.834000 90.889019 32.838416 11.748078
5561 136 6 0.417000 91.440891 33.552441 12.067197
5562 136 6 0.417000 90.031025 33.240491 11.612377
5563 137 5 -0.834000 125.399106 4.384494 11.693401
5564 137 6 0.417000 125.504954 3.481852 11.392961
5565 137 6 0.417000 126.085422 4.500781 12.350424
5566 138 5 -0.834000 148.611324 12.954410 11.712419
5567 138 6 0.417000 147.788489 12.647251 12.092980
5568 138 6 0.417000 149.284393 12.417611 12.130818
5569 139 5 -0.834000 4.426322 18.540186 11.745606
5570 139 6 0.417000 4.840722 18.097224 12.486072
5571 139 6 0.417000 4.022424 17.835135 11.239640
5572 140 5 -0.834000 105.284072 18.539782 11.704540
5573 140 6 0.417000 104.378656 18.840744 11.781196
5574 140 6 0.417000 105.503171 18.670626 10.781985
5575 141 5 -0.834000 38.876640 35.776614 11.704200
5576 141 6 0.417000 38.910341 36.664021 11.346981
5577 141 6 0.417000 39.535432 35.772263 12.398611
5578 142 5 -0.834000 93.729525 18.549390 8.280621
5579 142 6 0.417000 94.678141 18.437942 8.217857
5580 142 6 0.417000 93.503608 18.201759 9.143376
5581 143 5 -0.834000 41.758296 1.495812 11.678613
5582 143 6 0.417000 42.007124 0.571696 11.696657
5583 143 6 0.417000 40.804154 1.485997 11.602796
5584 144 5 -0.834000 102.433599 1.503711 11.706994
5585 144 6 0.417000 101.836143 2.234152 11.546577
5586 144 6 0.417000 103.205435 1.704269 11.177580
5587 145 5 -0.834000 125.436950 38.632332 11.784571
5588 145 6 0.417000 125.448344 38.023740 12.523299
5589 145 6 0.417000 124.571602 38.517060 11.391992
5590 146 5 -0.834000 53.297204 29.936700 8.335560
5591 146 6 0.417000 52.591528 29.348427 8.066880
5592 146 6 0.417000 53.462760 30.480375 7.565339
5593 147 5 -0.834000 108.245165 18.578560 8.307426
5594 147 6 0.417000 107.417068 18.112465 8.192354
5595 147 6 0.417000 108.270107 18.797104 9.239010
5596 148 5 -0.834000 7.191174 7.044975 8.207070
5597 148 6 0.417000 7.755997 7.632451 7.704996
5598 148 6 0.417000 6.438933 7.584765 8.449955
5599 149 5 -0.834000 70.618413 15.773760 11.681068
5600 149 6 0.417000 70.339858 16.247995 12.464484
5601 149 6 0.417000 71.201031 16.382272 11.226645
5602 150 5 -0.834000 15.845810 21.524229 8.205565
5603 150 6 0.417000 14.917222 21.320108 8.316430
5604 150 6 0.417000 16.262323 20.675016 8.058645
5605 151 5 -0.834000 102.431670 32.894119 8.333319
5606 151 6 0.417000 102.550562 32.817615 9.280020
5607 151 6 0.417000 103.306423 33.087967 7.996479
5608 152 5 -0.834000 105.380954 38.658257 8.266128
5609 152 6 0.417000 105.301489 39.511541 8.692536
5610 152 6 0.417000 106.013679 38.799855 7.561968
5611 153 5 -0.834000 79.420563 15.627759 11.655888
5612 153 6 0.417000 80.219330 15.978820 11.262239
5613 153 6 0.417000 79.050852 16.362910 12.144864
5614 154 5 -0.834000 137.064908 24.308192 11.728628
5615 154 6 0.417000 137.353989 23.585099 12.285225
5616 154 6 0.417000 136.109604 24.287495 11.785183
5617 155 5 -0.834000 111.093060 15.756998 8.280604
5618 155 6 0.417000 111.016520 14.884036 7.895493
5619 155 6 0.417000 110.211346 16.124493 8.219304
5620 156 5 -0.834000 18.740727 32.849056 8.193790
5621 156 6 0.417000 18.600059 33.787462 8.319647
5622 156 6 0.417000 18.104599 32.598769 7.523768
5623 157 5 -0.834000 41.853660 7.113631 8.153502
5624 157 6 0.417000 42.474553 6.513043 7.741169
5625 157 6 0.417000 41.469064 6.607291 8.869001
5626 158 5 -0.834000 44.797714 38.588021 8.275767
5627 158 6 0.417000 43.875293 38.373787 8.136218
5628 158 6 0.417000 44.782098 39.424006 8.741727
5629 159 5 -0.834000 38.991996 9.954235 11.727338
5630 159 6 0.417000 38.970451 9.023567 11.504573
5631 159 6 0.417000 39.649783 10.326433 11.139957
5632 160 5 -0.834000 50.579226 29.950011 11.725648
5633 160 6 0.417000 50.071014 30.253686 10.973495
5634 160 6 0.417000 51.455670 29.791656 11.374932
5635 161 5 -0.834000 27.486620 4.237500 11.678473
5636 161 6 0.417000 27.039946 3.571837 11.155398
5637 161 6 0.417000 28.191406 3.763130 12.119474
5638 162 5 -0.834000 131.184661 1.365104 11.694663
5639 162 6 0.417000 130.999343 0.744615 12.399562
5640 162 6 0.417000 130.591942 2.098611 11.858623
5641 163 5 -0.834000 125.383354 12.764871 8.285147
5642 163 6 0.417000 126.130298 13.010140 8.831178
5643 163 6 0.417000 125.619997 11.910344 7.924570
5644 164 5 -0.834000 85.141669 4.330850 8.249361
5645 164 6 0.417000 84.347418 3.905209 7.926519
5646 164 6 0.417000 85.112609 5.210387 7.872796
5647 165 5 -0.834000 21.630766 15.778614 8.279902
5648 165 6 0.417000 21.793354 16.422758 8.969014
5649 165 6 0.417000 20.677052 15.709985 8.235722
5650 166 5 -0.834000 15.918350 24.365053 11.763101
5651 166 6 0.417000 15.142497 24.315227 12.321492
5652 166 6 0.417000 16.632373 24.046662 12.315396
5653 167 5 -0.834000 70.700020 1.519915 8.273976
5654 167 6 0.417000 70.541252 1.747494 7.357880
5655 167 6 0.417000 69.961210 1.901995 8.747691
5656 168 5 -0.834000 110.997425 30.023677 11.698209
5657 168 6 0.417000 110.997966 29.882899 10.751418
5658 168 6 0.417000 111.556499 30.789850 11.827232
5659 169 5 -0.834000 13.048957 1.528103 11.814406
5660 169 6 0.417000 13.469967 2.269543 12.249435
5661 169 6 0.417000 12.154874 1.825179 11.645309
5662 170 5 -0.834000 131.248063 12.844690 8.322389
5663 170 6 0.417000 130.796316 12.642610 7.503048
5664 170 6 0.417000 131.271173 13.801084 8.354132
5665 171 5 -0.834000 102.328436 1.467413 8.193315
5666 171 6 0.417000 102.678243 1.733360 9.043690
5667 171 6 0.417000 101.489247 1.054714 8.397454
5668 172 5 -0.834000 56.173833 7.220645 11.675337
5669 172 6 0.417000 56.144857 8.142774 11.420248
5670 172 6 0.417000 55.684184 6.766458 10.989633
5671 173 5 -0.834000 30.251319 15.706939 8.199271
5672 173 6 0.417000 29.639369 15.677968 7.463806
5673 173 6 0.417000 31.081303 15.982531 7.810159
5674 174 5 -0.834000 76.508588 32.955056 11.657477
5675 174 6 0.417000 75.868677 33.474747 12.143963
5676 174 6 0.417000 77.088803 32.598034 12.329873
5677 175 5 -0.834000 82.290897 4.270784 11.777805
5678 175 6 0.417000 81.672726 3.562091 11.599338
5679 175 6 0.417000 83.151337 3.852715 11.744741
5680 176 5 -0.834000 36.051260 7.128481 11.737900
5681 176 6 0.417000 35.363922 7.709345 11.411719
5682 176 6 0.417000 36.197008 6.505617 11.025840
5683 177 5 -0.834000 62.071668 24.229524 8.342452
5684 177 6 0.417000 61.293180 23.713896 8.552967
5685 177 6 0.417000 62.113826 24.892670 9.031430
5686 178 5 -0.834000 50.540966 32.788064 8.153319
5687 178 6 0.417000 51.307080 32.963453 7.606931
5688 178 6 0.417000 49.845271 32.577210 7.530598
5689 179 5 -0.834000 47.562484 27.087300 11.673524
5690 179 6 0.417000 46.636651 27.185988 11.451433
5691 179 6 0.417000 47.771267 26.183839 11.436039
5692 180 5 -0.834000 44.760577 32.774724 8.215414
5693 180 6 0.417000 44.796544 33.606507 7.743104
5694 180 6 0.417000 44.869938 33.016103 9.135201
5695 181 5 -0.834000 1.399792 1.484142 11.836031
5696 181 6 0.417000 0.448795 1.378409 11.810406
5697 181 6 0.417000 1.647663 1.213091 12.719956
5698 182 5 -0.834000 38.942409 21.406691 8.214954
5699 182 6 0.417000 39.122473 22.341601 8.116201
5700 182 6 0.417000 39.556153 21.113935 8.888634
5701 183 5 -0.834000 10.099937 32.818841 11.792325
5702 183 6 0.417000 11.003433 32.933214 12.087022
5703 183 6 0.417000 9.572632 32.942109 12.581620
5704 184 5 -0.834000 12.890232 15.790344 11.813840
5705 184 6 0.417000 12.061077 15.358613 11.608066
5706 184 6 0.417000 13.442088 15.627127 11.048957
5707 185 5 -0.834000 59.085617 27.045118 11.796526
5708 185 6 0.417000 59.503685 26.559292 11.085594
5709 185 6 0.417000 59.787076 27.193611 12.430668
5710 186 5 -0.834000 131.190316 9.987730 8.217314
5711 186 6 0.417000 130.871267 10.651038 7.605381
5712 186 6 0.417000 130.437478 9.794813 8.776107
5713 187 5 -0.834000 76.450783 7.222961 11.723489
5714 187 6 0.417000 76.575299 7.224167 12.672555
5715 187 6 0.417000 77.335993 7.288403 11.365225
5716 188 5 -0.834000 90.915273 4.301174 8.172093
5717 188 6 0.417000 91.480724 3.986336 8.877341
5718 188 6 0.417000 90.275700 4.862860 8.609913
5719 189 5 -0.834000 76.483324 10.061728 8.241131
5720 189 6 0.417000 77.047763 9.892511 7.486806
5721 189 6 0.417000 76.590352 9.291038 8.798637
5722 190 5 -0.834000 76.423305 7.195458 8.288844
5723 190 6 0.417000 75.695318 7.211141 7.667538
5724 190 6 0.417000 77.204022 7.110076 7.741650
5725 191 5 -0.834000 67.738458 4.362003 11.830043
5726 191 6 0.417000 67.830534 5.301746 11.987005
5727 191 6 0.417000 66.947274 4.115097 12.308893
5728 192 5 -0.834000 134.190975 15.666393 8.339803
5729 192 6 0.417000 135.020312 15.609402 7.865268
5730 192 6 0.417000 134.224849 14.946336 8.969566
5731 193 5 -0.834000 18.797959 15.620244 8.319500
5732 193 6 0.417000 18.897033 16.162178 7.536733
5733 193 6 0.417000 18.396635 14.811277 8.002099
5734 194 5 -0.834000 41.828248 15.616113 11.682570
5735 194 6 0.417000 42.076789 16.533237 11.798080
5736 194 6 0.417000 42.650037 15.132434 11.765932
5737 195 5 -0.834000 76.389243 30.032563 11.673983
5738 195 6 0.417000 77.105910 29.437104 11.893187
5739 195 6 0.417000 76.052326 30.324645 12.520981
5740 196 5 -0.834000 148.503097 35.634449 8.253365
5741 196 6 0.417000 147.937400 35.044593 7.755080
5742 196 6 0.417000 148.134620 35.630995 9.136793
5743 197 5 -0.834000 136.956134 4.232801 11.827995
5744 197 6 0.417000 137.523490 4.390023 12.582727
5745 197 6 0.417000 136.790283 5.103624 11.466897
5746 198 5 -0.834000 82.181568 32.787330 8.285177
5747 198 6 0.417000 81.783134 32.007082 8.670788
5748 198 6 0.417000 82.526856 33.274993 9.032969
5749 199 5 -0.834000 111.079506 32.861923 11.843901
5750 199 6 0.417000 110.710772 32.066556 12.228165
5751 199 6 0.417000 111.680548 32.546120 11.169180
5752 200 5 -0.834000 134.100326 10.020858 11.693018
5753 200 6 0.417000 134.849558 9.432543 11.786661
5754 200 6 0.417000 133.415207 9.476955 11.304414
5755 201 5 -0.834000 134.176162 24.321087 11.720992
5756 201 6 0.417000 134.540202 23.653899 11.139127
5757 201 6 0.417000 134.147415 23.900317 12.580270
5758 202 5 -0.834000 93.650309 38.539732 8.185660
5759 202 6 0.417000 93.778812 39.348796 7.690549
5760 202 6 0.417000 94.130396 38.679086 9.001950
5761 203 5 -0.834000 122.620782 7.092905 8.183605
5762 203 6 0.417000 123.383379 7.642143 8.365303
5763 203 6 0.417000 122.550737 6.519438 8.946795
5764 204 5 -0.834000 62.005859 30.010833 8.162818
5765 204 6 0.417000 61.834555 29.277698 8.753920
5766 204 6 0.417000 62.874467 30.324332 8.414751
5767 205 5 -0.834000 108.261191 4.226638 11.726681
5768 205 6 0.417000 108.218881 3.278939 11.854384
5769 205 6 0.417000 109.186217 4.443425 11.843136
5770 206 5 -0.834000 136.979214 1.520395 11.822808
5771 206 6 0.417000 136.635177 1.463606 12.714237
5772 206 6 0.417000 136.616203 0.755495 11.376285
5773 207 5 -0.834000 59.068004 12.934069 11.767985
5774 207 6 0.417000 59.224212 12.008987 11.578106
5775 207 6 0.417000 58.983750 12.972612 12.720690
5776 208 5 -0.834000 125.446069 15.806144 8.299041
5777 208 6 0.417000 125.147784 16.070804 7.428861
5778 208 6 0.417000 126.032875 15.067429 8.137203
5779 209 5 -0.834000 59.075418 10.097107 8.278908
5780 209 6 0.417000 59.889869 10.173411 7.781838
5781 209 6 0.417000 59.024838 10.909334 8.782854
5782 210 5 -0.834000 18.782200 9.994134 11.728940
5783 210 6 0.417000 18.936992 10.654654 11.053674
5784 210 6 0.417000 18.902160 10.462692 12.554951
5785 211 5 -0.834000 73.459127 7.194952 8.270855
5786 211 6 0.417000 72.505921 7.173676 8.355577
5787 211 6 0.417000 73.778773 7.255779 9.171054
5788 212 5 -0.834000 85.140476 27.120665 8.303342
5789 212 6 0.417000 84.754797 27.951679 8.580650
5790 212 6 0.417000 84.948001 27.067293 7.367213
5791 213 5 -0.834000 102.333332 7.242715 8.305558
5792 213 6 0.417000 102.144161 6.369385 8.648693
5793 213 6 0.417000 103.245536 7.403101 8.547204
5794 214 5 -0.834000 36.031998 12.886138 11.679627
5795 214 6 0.417000 36.751831 13.473750 11.909378
5796 214 6 0.417000 36.462126 12.098091 11.347658
5797 215 5 -0.834000 108.193605 15.798145 8.301165
5798 215 6 0.417000 108.771091 15.150706 8.705596
5799 215 6 0.417000 107.539705 15.989656 8.973452
5800 216 5 -0.834000 53.416875 27.196124 11.681185
5801 216 6 0.417000 53.731608 27.213161 12.585002
5802 216 6 0.417000 52.487691 27.416557 11.746434
5803 217 5 -0.834000 27.360231 18.615383 11.673651
5804 217 6 0.417000 27.281487 18.333565 10.762273
5805 217 6 0.417000 28.301835 18.716057 11.813218
5806 218 5 -0.834000 70.635700 29.907861 11.688606
5807 218 6 0.417000 69.985235 29.771267 12.377424
5808 218 6 0.417000 71.152209 29.101995 11.683059
5809 219 5 -0.834000 113.978782 21.494355 11.847338
5810 219 6 0.417000 114.897429 21.254234 11.968423
5811 219 6 0.417000 113.909738 21.718959 10.919428
5812 220 5 -0.834000 10.172814 15.765683 11.821186
5813 220 6 0.417000 10.989068 15.298769 11.642432
5814 220 6 0.417000 10.250129 16.581935 11.327237
5815 221 5 -0.834000 53.439453 12.885148 11.752002
5816 221 6 0.417000 52.873148 13.620344 11.517445
5817 221 6 0.417000 53.507279 12.929231 12.705778
5818 222 5 -0.834000 148.595430 7.188554 11.664079
5819 222 6 0.417000 148.274442 7.252621 10.764583
5820 222 6 0.417000 149.262270 7.872064 11.730181
5821 223 5 -0.834000 24.587619 15.711091 11.760231
5822 223 6 0.417000 25.278297 16.038099 12.336653
5823 223 6 0.417000 24.011032 16.463241 11.625886
5824 224 5 -0.834000 44.696886 24.213126 11.823453
5825 224 6 0.417000 43.823652 24.604275 11.797050
5826 224 6 0.417000 44.558081 23.340865 12.192404
5827 225 5 -0.834000 82.240032 35.663608 8.221386
5828 225 6 0.417000 81.763698 35.758361 9.046225
5829 225 6 0.417000 83.015465 35.150908 8.449588
5830 226 5 -0.834000 59.131041 21.367943 11.768945
5831 226 6 0.417000 59.453461 21.272144 12.665104
5832 226 6 0.417000 58.510689 22.095543 11.813582
5833 227 5 -0.834000 96.626678 15.769392 11.808896
5834 227 6 0.417000 97.394259 15.373048 11.396631
5835 227 6 0.417000 96.898195 16.664793 12.010804
5836 228 5 -0.834000 47.641768 4.282767 8.260651
5837 228 6 0.417000 46.879501 4.402470 7.694213
5838 228 6 0.417000 48.110683 5.115777 8.211203
5839 229 5 -0.834000 96.593940 9.964574 8.169455
5840 229 6 0.417000 96.243861 10.785866 7.824267
5841 229 6 0.417000 96.114298 9.823495 8.985710
5842 230 5 -0.834000 7.291264 9.971003 8.230218
5843 230 6 0.417000 7.850158 9.200966 8.125755
5844 230 6 0.417000 7.795464 10.558973 8.792629
5845 231 5 -0.834000 142.782326 12.944152 8.286120
5846 231 6 0.417000 143.555182 13.071337 8.836347
5847 231 6 0.417000 143.057014 12.302470 7.631122
5848 232 5 -0.834000 27.468234 38.507456 11.687668
5849 232 6 0.417000 27.566312 39.450910 11.816147
5850 232 6 0.417000 28.161544 38.276067 11.069597
5851 233 5 -0.834000 15.789805 18.669262 11.778814
5852 233 6 0.417000 16.385801 18.199344 12.362078
5853 233 6 0.417000 15.044975 18.078028 11.669718
5854 234 5 -0.834000 137.010438 21.432602 11.786350
5855 234 6 0.417000 137.602854 20.803466 11.374691
5856 234 6 0.417000 137.434890 21.655271 12.614897
5857 235 5 -0.834000 53.429623 35.741661 8.303291
5858 235 6 0.417000 52.493183 35.703354 8.497828
5859 235 6 0.417000 53.855287 35.672431 9.157837
5860 236 5 -0.834000 35.962438 24.219189 8.344485
5861 236 6 0.417000 35.822229 24.715715 7.538237
5862 236 6 0.417000 35.383169 24.632505 8.984680
5863 237 5 -0.834000 145.746134 38.557532 8.229517
5864 237 6 0.417000 145.697698 37.651072 7.925846
5865 237 6 0.417000 146.368167 38.534112 8.956675
5866 238 5 -0.834000 56.180031 18.494233 8.238025
5867 238 6 0.417000 56.681093 18.556117 9.051253
5868 238 6 0.417000 55.695950 19.318668 8.191076
5869 239 5 -0.834000 1.364983 27.203059 11.769953
5870 239 6 0.417000 1.000759 26.352742 11.523917
5871 239 6 0.417000 2.278321 27.164102 11.486179
5872 240 5 -0.834000 59.108059 24.362120 11.691245
5873 240 6 0.417000 58.271334 23.897973 11.717521
5874 240 6 0.417000 59.762910 23.686486 11.867083
5875 241 5 -0.834000 79.251908 12.796139 8.328602
5876 241 6 0.417000 79.869544 12.253155 7.838780
5877 241 6 0.417000 79.649274 13.666949 8.333312
5878 242 5 -0.834000 90.794465 35.629675 11.780154
5879 242 6 0.417000 90.078021 34.994931 11.774003
5880 242 6 0.417000 91.143450 35.589045 12.670542
5881 243 5 -0.834000 15.900177 9.952633 8.237004
5882 243 6 0.417000 16.081682 10.732555 7.712590
5883 243 6 0.417000 15.358810 10.270066 8.959769
5884 244 5 -0.834000 142.772004 1.491531 8.280919
5885 244 6 0.417000 143.278611 0.679414 8.274055
5886 244 6 0.417000 141.876692 1.214243 8.475241
5887 245 5 -0.834000 47.681085 12.953170 8.183141
5888 245 6 0.417000 48.415979 12.603403 8.686953
5889 245 6 0.417000 48.088900 13.502427 7.513637
5890 246 5 -0.834000 59.108621 1.451352 8.335605
5891 246 6 0.417000 58.670407 0.693051 8.721843
5892 246 6 0.417000 59.623752 1.821674 9.052357
5893 247 5 -0.834000 79.262433 21.366876 11.650362
5894 247 6 0.417000 78.588117 21.359432 12.329682
5895 247 6 0.417000 80.002392 20.902545 12.041628
5896 248 5 -0.834000 1.481921 38.626962 8.153073
5897 248 6 0.417000 0.900058 39.013861 8.807272
5898 248 6 0.417000 1.669700 39.342577 7.545729
5899 249 5 -0.834000 64.807101 4.335835 8.256950
5900 249 6 0.417000 65.583722 4.207000 8.801462
5901 249 6 0.417000 64.462290 5.186588 8.528162
5902 250 5 -0.834000 90.818166 10.015284 8.219484
5903 250 6 0.417000 90.048700 9.447727 8.264557
5904 250 6 0.417000 91.529372 9.434361 7.949398
5905 251 5 -0.834000 41.877095 4.364203 8.150272
5906 251 6 0.417000 41.277735 3.860254 7.599786
5907 251 6 0.417000 42.598985 4.598577 7.567026
5908 252 5 -0.834000 145.720722 10.052988 8.204250
5909 252 6 0.417000 145.478011 9.532209 7.438671
5910 252 6 0.417000 144.906671 10.145974 8.699131
5911 253 5 -0.834000 88.019922 29.976321 11.709149
5912 253 6 0.417000 87.964816 29.020834 11.724590
5913 253 6 0.417000 88.654700 30.191174 12.392616
5914 254 5 -0.834000 24.534775 18.623239 11.831794
5915 254 6 0.417000 24.982867 19.415850 11.536475
5916 254 6 0.417000 23.631191 18.900573 11.982970
5917 255 5 -0.834000 62.098204 32.783568 11.790646
5918 255 6 0.417000 61.771633 32.460907 10.950722
5919 255 6 0.417000 62.706623 32.106875 12.087538
5920 256 5 -0.834000 119.724687 38.624126 11.815113
5921 256 6 0.417000 120.112151 38.581663 12.689356
5922 256 6 0.417000 119.564013 39.556339 11.668842
5923 257 5 -0.834000 119.633305 18.611073 11.693283
5924 257 6 0.417000 119.914016 18.152416 12.485158
5925 257 6 0.417000 120.444486 18.940733 11.306578
5926 258 5 -0.834000 131.229183 29.913422 11.839272
5927 258 6 0.417000 130.722012 29.787585 12.641254
5928 258 6 0.417000 132.107794 30.140119 12.144039
5929 259 5 -0.834000 82.229279 10.031389 11.735330
5930 259 6 0.417000 82.442263 9.338909 12.360903
5931 259 6 0.417000 81.355353 10.325933 11.991707
5932 260 5 -0.834000 7.178505 18.517496 8.198888
5933 260 6 0.417000 8.025488 18.466424 7.755893
5934 260 6 0.417000 7.261823 17.923903 8.945171
5935 261 5 -0.834000 70.653069 35.780341 11.676931
5936 261 6 0.417000 70.765497 35.060601 12.297871
5937 261 6 0.417000 69.779181 36.123664 11.863159
5938 262 5 -0.834000 13.066027 21.333263 11.847682
5939 262 6 0.417000 12.234979 20.992645 11.516668
5940 262 6 0.417000 12.827052 21.830654 12.629811
5941 263 5 -0.834000 62.081958 21.490241 8.306850
5942 263 6 0.417000 62.797090 21.524202 8.942196
5943 263 6 0.417000 62.333906 20.795191 7.698854
5944 264 5 -0.834000 44.758572 21.512514 8.179013
5945 264 6 0.417000 44.137135 22.096666 8.613540
5946 264 6 0.417000 45.611603 21.924377 8.316630
5947 265 5 -0.834000 76.488199 1.339064 11.721600
5948 265 6 0.417000 75.788727 1.392376 11.070347
5949 265 6 0.417000 76.689478 2.250724 11.932775
5950 266 5 -0.834000 99.564835 18.586098 11.750954
5951 266 6 0.417000 98.836240 19.206129 11.720260
5952 266 6 0.417000 99.660315 18.373768 12.679411
5953 267 5 -0.834000 93.660934 30.045156 8.191075
5954 267 6 0.417000 92.951307 29.690679 8.726806
5955 267 6 0.417000 93.906785 30.860772 8.627608
5956 268 5 -0.834000 4.328922 32.952364 8.246493
5957 268 6 0.417000 4.388975 33.293807 7.354281
5958 268 6 0.417000 4.575727 32.030873 8.167924
5959 269 5 -0.834000 59.170155 32.832457 11.777809
5960 269 6 0.417000 59.572305 32.954143 10.917751
5961 269 6 0.417000 59.305998 33.666998 12.226496
5962 270 5 -0.834000 96.556504 4.206394 8.178882
5963 270 6 0.417000 97.371551 4.152999 8.677960
5964 270 6 0.417000 96.298721 3.294769 8.042057
5965 271 5 -0.834000 99.560421 38.511119 11.689044
5966 271 6 0.417000 98.916842 38.929001 12.261244
5967 271 6 0.417000 100.384540 38.568605 12.172526
5968 272 5 -0.834000 67.815987 9.966096 8.273766
5969 272 6 0.417000 67.362548 10.179159 9.089382
5970 272 6 0.417000 67.645927 10.714703 7.702016
5971 273 5 -0.834000 21.566789 12.781161 11.752164
5972 273 6 0.417000 21.475764 11.854302 11.973247
5973 273 6 0.417000 22.440298 12.851367 11.367087
5974 274 5 -0.834000 145.622092 7.076610 8.158480
5975 274 6 0.417000 145.461900 7.321046 7.246986
5976 274 6 0.417000 144.799011 6.684445 8.449987
5977 275 5 -0.834000 102.493132 27.157391 11.785225
5978 275 6 0.417000 103.141618 27.540621 12.375846
5979 275 6 0.417000 102.844767 26.293310 11.570867
5980 276 5 -0.834000 15.947094 4.377559 11.784730
5981 276 6 0.417000 16.784774 4.819322 11.645558
5982 276 6 0.417000 15.374438 4.728603 11.102773
5983 277 5 -0.834000 44.808722 15.715021 11.731163
5984 277 6 0.417000 44.099543 16.340599 11.879312
5985 277 6 0.417000 44.746227 15.497209 10.801171
5986 278 5 -0.834000 10.029813 38.553428 11.769479
5987 278 6 0.417000 10.536953 39.358574 11.665644
5988 278 6 0.417000 10.008150 38.168760 10.893241
5989 279 5 -0.834000 76.410264 27.231762 8.171586
5990 279 6 0.417000 75.605938 27.580767 7.787546
5991 279 6 0.417000 76.903758 28.006648 8.440374
5992 280 5 -0.834000 39.025746 27.156492 8.221032
5993 280 6 0.417000 38.183911 27.533933 7.965919
5994 280 6 0.417000 39.218624 26.515562 7.536753
5995 281 5 -0.834000 108.118813 21.352197 11.672550
5996 281 6 0.417000 108.517595 20.487237 11.577427
5997 281 6 0.417000 108.453407 21.680247 12.507213
5998 282 5 -0.834000 4.234814 38.522664 8.324119
5999 282 6 0.417000 3.859485 38.477252 7.444746
6000 282 6 0.417000 5.158259 38.301948 8.202604
6001 283 5 -0.834000 53.288837 18.476839 8.250082
6002 283 6 0.417000 53.668274 17.635546 8.504022
6003 283 6 0.417000 52.876803 18.805266 9.049203
6004 284 5 -0.834000 99.486084 4.259038 8.157898
6005 284 6 0.417000 100.440997 4.240993 8.221523
6006 284 6 0.417000 99.191675 3.590502 8.776458
6007 285 5 -0.834000 27.391880 18.548688 8.347712
6008 285 6 0.417000 26.587027 18.809365 8.795475
6009 285 6 0.417000 28.095164 18.861514 8.916714
6010 286 5 -0.834000 53.457381 9.980797 11.834706
6011 286 6 0.417000 53.698193 10.500396 12.601687
6012 286 6 0.417000 52.531879 9.774499 11.965541
6013 287 5 -0.834000 116.843404 24.219395 8.345119
6014 287 6 0.417000 116.941073 23.408804 7.845483
6015 287 6 0.417000 116.680720 23.929838 9.242851
6016 288 5 -0.834000 113.921426 35.712864 8.290926
6017 288 6 0.417000 113.875543 36.568813 8.716928
6018 288 6 0.417000 113.489917 35.841733 7.446281
6019 289 5 -0.834000 44.657671 4.282345 8.198152
6020 289 6 0.417000 44.604055 3.885793 7.328610
6021 289 6 0.417000 44.446712 3.569074 8.800624
6022 290 5 -0.834000 56.199625 4.256427 8.332777
6023 290 6 0.417000 57.042298 3.807995 8.403786
6024 290 6 0.417000 56.412659 5.184489 8.430498
6025 291 5 -0.834000 38.972923 12.835445 11.717999
6026 291 6 0.417000 38.368039 12.535595 11.039443
6027 291 6 0.417000 39.728286 13.170707 11.235033
6028 292 5 -0.834000 145.655545 18.500732 8.325492
6029 292 6 0.417000 145.135067 18.267177 9.094119
6030 292 6 0.417000 146.462531 17.994560 8.419275
6031 293 5 -0.834000 61.993438 12.854585 11.670181
6032 293 6 0.417000 62.270794 13.689308 11.292634
6033 293 6 0.417000 62.389786 12.191856 11.104557
6034 294 5 -0.834000 139.985582 4.288501 8.349092
6035 294 6 0.417000 140.354742 3.447743 8.078761
6036 294 6 0.417000 140.668184 4.927406 8.143937
6037 295 5 -0.834000 35.979473 12.809737 8.273005
6038 295 6 0.417000 35.882424 11.857730 8.295264
6039 295 6 0.417000 35.082370 13.142955 8.293131
6040 296 5 -0.834000 50.461847 10.060785 8.268774
6041 296 6 0.417000 49.665072 10.376029 7.842158
6042 296 6 0.417000 50.517015 9.137586 8.022010
6043 297 5 -0.834000 47.669516 32.916444 11.654716
6044 297 6 0.417000 46.976771 32.388963 11.257099
6045 297 6 0.417000 47.991870 33.466681 10.940882
6046 298 5 -0.834000 56.337944 27.072276 11.719519
6047 298 6 0.417000 57.033552 26.445354 11.521197
6048 298 6 0.417000 55.540008 26.544336 11.747967
6049 299 5 -0.834000 79.334796 1.505382 11.710309
6050 299 6 0.417000 79.863265 0.774849 11.388947
6051 299 6 0.417000 78.959595 1.895663 10.920919
6052 300 5 -0.834000 33.079028 27.064978 8.309224
6053 300 6 0.417000 33.401274 26.710665 9.137988
6054 300 6 0.417000 33.165571 26.341116 7.688929
6055 301 5 -0.834000 53.305692 21.462516 11.786765
6056 301 6 0.417000 53.979819 21.553140 12.460242
6057 301 6 0.417000 53.322483 20.534256 11.553776
6058 302 5 -0.834000 56.341378 12.957089 11.697361
6059 302 6 0.417000 56.411984 12.628520 10.801097
6060 302 6 0.417000 57.178181 12.729981 12.102843
6061 303 5 -0.834000 131.318889 38.550285 8.194057
6062 303 6 0.417000 130.610683 39.113228 8.506740
6063 303 6 0.417000 131.153145 38.454647 7.256180
6064 304 5 -0.834000 85.064066 24.226656 11.849767
6065 304 6 0.417000 85.700500 24.849166 12.201429
6066 304 6 0.417000 85.116378 23.472484 12.436895
6067 305 5 -0.834000 90.767952 21.499149 11.791048
6068 305 6 0.417000 90.824637 22.454048 11.756583
6069 305 6 0.417000 90.220340 21.318668 12.555103
6070 306 5 -0.834000 128.378126 24.230361 11.714084
6071 306 6 0.417000 127.442771 24.117866 11.883457
6072 306 6 0.417000 128.739908 23.345819 11.768239
6073 307 5 -0.834000 93.839814 32.921097 8.174536
6074 307 6 0.417000 94.321044 33.409738 8.842277
6075 307 6 0.417000 93.926322 33.449782 7.381289
6076 308 5 -0.834000 59.122611 18.661026 11.656554
6077 308 6 0.417000 58.408831 19.281787 11.802860
6078 308 6 0.417000 59.005555 18.369477 10.752381
6079 309 5 -0.834000 67.794672 32.902847 8.202952
6080 309 6 0.417000 67.822037 32.017318 8.565336
6081 309 6 0.417000 66.926081 33.230745 8.435898
6082 310 5 -0.834000 139.885854 32.943253 8.272825
6083 310 6 0.417000 139.454849 32.119238 8.499686
6084 310 6 0.417000 140.222182 33.275278 9.105215
6085 311 5 -0.834000 125.550787 15.753757 11.695472
6086 311 6 0.417000 125.995557 15.603833 10.861245
6087 311 6 0.417000 124.881698 16.408681 11.496409
6088 312 5 -0.834000 87.911484 21.451057 11.714314
6089 312 6 0.417000 88.668040 21.484929 12.299727
6090 312 6 0.417000 87.155575 21.550522 12.293055
6091 313 5 -0.834000 33.087001 1.339955 8.311798
6092 313 6 0.417000 33.301144 0.434620 8.537060
6093 313 6 0.417000 32.212458 1.290790 7.925808
6094 314 5 -0.834000 41.871652 7.212920 11.652672
6095 314 6 0.417000 40.999622 7.477563 11.359824
6096 314 6 0.417000 42.365012 8.031341 11.707585
6097 315 5 -0.834000 64.928336 12.764876 11.823743
6098 315 6 0.417000 64.599250 13.659890 11.906716
6099 315 6 0.417000 65.529953 12.661076 12.560977
6100 316 5 -0.834000 113.892070 38.661459 8.216364
6101 316 6 0.417000 113.944901 38.965830 9.122343
6102 316 6 0.417000 112.963356 38.728422 7.994468
6103 317 5 -0.834000 82.171903 27.241692 8.325776
6104 317 6 0.417000 81.226047 27.388621 8.325544
6105 317 6 0.417000 82.406929 27.192686 9.252379
6106 318 5 -0.834000 50.580155 18.489336 11.771566
6107 318 6 0.417000 51.533629 18.474721 11.688460
6108 318 6 0.417000 50.407097 18.084348 12.621429
6109 319 5 -0.834000 47.595702 29.958628 11.773636
6110 319 6 0.417000 48.090644 29.895758 10.956744
6111 319 6 0.417000 48.261012 29.921393 12.460810
6112 320 5 -0.834000 47.688032 24.334585 11.779312
6113 320 6 0.417000 47.686421 25.248722 12.063185
6114 320 6 0.417000 47.036575 23.909038 12.336756
6115 321 5 -0.834000 87.952971 12.873160 11.650994
6116 321 6 0.417000 87.075376 12.813754 11.273462
6117 321 6 0.417000 87.804060 12.951483 12.593290
6118 322 5 -0.834000 136.970615 12.885292 11.779798
6119 322 6 0.417000 137.559539 12.134330 11.705931
6120 322 6 0.417000 136.554037 12.780358 12.635183
6121 323 5 -0.834000 76.385797 38.503445 11.750971
6122 323 6 0.417000 76.789966 39.182000 11.210191
6123 323 6 0.417000 76.077510 37.848995 11.124164
6124 324 5 -0.834000 108.146247 27.147127 11.663350
6125 324 6 0.417000 108.247034 28.056818 11.383109
6126 324 6 0.417000 107.254812 27.099790 12.008798
6127 325 5 -0.834000 113.978145 29.980927 8.168537
6128 325 6 0.417000 113.998148 29.048266 7.954122
6129 325 6 0.417000 113.220566 30.320511 7.692105
6130 326 5 -0.834000 119.716100 27.160896 8.212861
6131 326 6 0.417000 120.284145 27.208813 8.981796
6132 326 6 0.417000 119.024720 26.548013 8.463060
6133 327 5 -0.834000 33.120262 18.648625 11.777439
6134 327 6 0.417000 32.196702 18.747612 11.546202
6135 327 6 0.417000 33.307543 19.397495 12.343434
6136 328 5 -0.834000 102.365657 32.913642 11.731171
6137 328 6 0.417000 101.471924 33.254702 11.765112
6138 328 6 0.417000 102.456401 32.398146 12.532584
6139 329 5 -0.834000 105.283824 1.357676 8.210688
6140 329 6 0.417000 104.855943 2.122978 8.594698
6141 329 6 0.417000 104.734890 0.618813 8.473337
6142 330 5 -0.834000 59.107589 15.778820 11.694586
6143 330 6 0.417000 58.446558 15.910147 12.374309
6144 330 6 0.417000 58.785250 16.280970 10.946138
6145 331 5 -0.834000 148.561774 21.377453 8.298777
6146 331 6 0.417000 148.718807 21.803101 7.455928
6147 331 6 0.417000 149.277190 21.680694 8.857755
6148 332 5 -0.834000 1.372097 12.855224 8.201798
6149 332 6 0.417000 0.746021 12.278470 8.639535
6150 332 6 0.417000 1.488732 13.586882 8.807855
6151 333 5 -0.834000 41.869094 27.219094 11.846117
6152 333 6 0.417000 42.186593 26.369629 12.152442
6153 333 6 0.417000 40.944603 27.233294 12.093802
6154 334 5 -0.834000 99.557035 35.615329 11.797816
6155 334 6 0.417000 98.764413 35.080074 11.759300
6156 334 6 0.417000 100.018490 35.419846 10.982293
6157 335 5 -0.834000 119.757661 1.491883 11.797584
6158 335 6 0.417000 118.840607 1.415642 12.061081
6159 335 6 0.417000 120.206783 0.804901 12.290104
6160 336 5 -0.834000 44.641676 18.657920 8.201948
6161 336 6 0.417000 45.417891 18.328344 7.749065
6162 336 6 0.417000 44.448682 19.491099 7.772067
6163 337 5 -0.834000 10.157945 21.354422 11.666433
6164 337 6 0.417000 9.909015 22.185513 12.070849
6165 337 6 0.417000 9.764914 20.686762 12.228562
6166 338 5 -0.834000 136.950783 15.788613 11.805628
6167 338 6 0.417000 137.796521 16.195840 11.993047
6168 338 6 0.417000 136.904940 15.759549 10.849968
6169 339 5 -0.834000 15.939798 38.588385 8.197124
6170 339 6 0.417000 16.605866 38.566362 7.510029
6171 339 6 0.417000 16.419473 38.832678 8.988619
6172 340 5 -0.834000 18.658191 18.490181 8.204209
6173 340 6 0.417000 18.179817 19.259097 7.894115
6174 340 6 0.417000 18.413874 17.793657 7.594787
6175 341 5 -0.834000 30.243788 27.100641 8.316798
6176 341 6 0.417000 29.745129 26.992787 9.126699
6177 341 6 0.417000 29.639584 27.542162 7.719950
6178 342 5 -0.834000 64.948542 1.443032 11.735439
6179 342 6 0.417000 64.059982 1.276207 12.049861
6180 342 6 0.417000 65.512115 0.965287 12.344024
6181 343 5 -0.834000 27.351934 32.876173 8.202800
6182 343 6 0.417000 26.628578 32.920240 8.828137
6183 343 6 0.417000 26.933293 32.677806 7.365171
6184 344 5 -0.834000 137.081058 30.083530 8.258361
6185 344 6 0.417000 137.498992 30.249910 9.103275
6186 344 6 0.417000 136.307978 29.561004 8.471777
6187 345 5 -0.834000 70.581204 27.179871 11.713162
6188 345 6 0.417000 70.493653 26.571107 10.979696
6189 345 6 0.417000 71.496388 27.458980 11.685457
6190 346 5 -0.834000 122.681596 1.344107 11.791671
6191 346 6 0.417000 123.041698 0.629504 11.266407
6192 346 6 0.417000 122.443833 0.934376 12.623428
6193 347 5 -0.834000 56.300669 21.337259 8.316846
6194 347 6 0.417000 56.828060 22.133941 8.375048
6195 347 6 0.417000 55.951964 21.344877 7.425454
6196 348 5 -0.834000 30.234621 32.913838 8.315514
6197 348 6 0.417000 29.806490 32.105661 8.597977
6198 348 6 0.417000 29.671540 33.253219 7.619818
6199 349 5 -0.834000 38.873769 30.003474 8.224278
6200 349 6 0.417000 39.157763 30.576575 8.936412
6201 349 6 0.417000 39.162048 30.449409 7.427868
6202 350 5 -0.834000 85.000190 27.063271 11.718751
6203 350 6 0.417000 84.239690 26.493749 11.602486
6204 350 6 0.417000 84.846052 27.501605 12.555612
6205 351 5 -0.834000 39.013491 4.355889 8.213181
6206 351 6 0.417000 38.902674 3.606642 7.627877
6207 351 6 0.417000 39.091599 5.108708 7.627182
6208 352 5 -0.834000 18.794392 24.302970 8.316151
6209 352 6 0.417000 18.694575 24.773152 9.143918
6210 352 6 0.417000 17.906672 24.249081 7.962201
6211 353 5 -0.834000 1.496338 18.534996 8.324249
6212 353 6 0.417000 1.821368 17.733544 8.734446
6213 353 6 0.417000 1.717420 19.229095 8.945202
6214 354 5 -0.834000 41.863759 27.067465 8.167303
6215 354 6 0.417000 41.859327 26.806186 7.246464
6216 354 6 0.417000 42.668903 27.575067 8.268865
6217 355 5 -0.834000 131.162360 35.774155 8.249996
6218 355 6 0.417000 131.280101 34.844308 8.055696
6219 355 6 0.417000 131.818701 35.964244 8.920305
6220 356 5 -0.834000 30.207685 24.314789 8.281586
6221 356 6 0.417000 29.319364 23.962932 8.339150
6222 356 6 0.417000 30.352446 24.740431 9.126634
6223 357 5 -0.834000 108.248913 15.739060 11.849895
6224 357 6 0.417000 107.455563 15.298537 12.154472
6225 357 6 0.417000 108.018669 16.668100 11.839662
6226 358 5 -0.834000 119.721970 29.991594 11.812717
6227 358 6 0.417000 120.043495 29.155366 12.149728
6228 358 6 0.417000 119.551867 29.827103 10.885225
6229 359 5 -0.834000 18.702825 38.520870 8.294699
6230 359 6 0.417000 19.575242 38.784683 8.587143
6231 359 6 0.417000 18.257924 39.344210 8.093686
6232 360 5 -0.834000 128.433140 15.750491 8.193440
6233 360 6 0.417000 128.589985 16.300947 7.426219
6234 360 6 0.417000 128.083273 16.350666 8.851934
6235 361 5 -0.834000 148.569332 18.488832 11.821823
6236 361 6 0.417000 149.191108 18.464666 11.094470
6237 361 6 0.417000 148.664452 19.367352 12.189772
6238 362 5 -0.834000 13.074536 15.617994 8.228038
6239 362 6 0.417000 13.523426 16.393798 8.563981
6240 362 6 0.417000 13.604994 15.337978 7.482091
6241 363 5 -0.834000 21.707329 21.498333 8.223258
6242 363 6 0.417000 21.396643 21.677312 7.335749
6243 363 6 0.417000 22.048432 20.604902 8.182508
6244 364 5 -0.834000 59.082822 35.729491 11.727230
6245 364 6 0.417000 59.710229 35.926399 11.031658
6246 364 6 0.417000 59.206282 34.797059 11.904885
6247 365 5 -0.834000 70.576080 18.574499 11.724241
6248 365 6 0.417000 69.935983 19.283799 11.782554
6249 365 6 0.417000 70.707412 18.294677 12.630157
6250 366 5 -0.834000 125.455460 27.077531 8.269661
6251 366 6 0.417000 124.603432 27.400673 7.976643
6252 366 6 0.417000 125.937600 27.865445 8.520589
6253 367 5 -0.834000 116.778982 27.241785 8.277154
6254 367 6 0.417000 116.240932 27.822385 8.815333
6255 367 6 0.417000 117.136309 27.809899 7.594662
6256 368 5 -0.834000 64.961468 38.632569 8.189731
6257 368 6 0.417000 64.038601 38.845034 8.329039
6258 368 6 0.417000 65.340454 38.621271 9.068635
6259 369 5 -0.834000 36.128751 18.553217 11.699334
6260 369 6 0.417000 35.455172 19.151933 12.021921
6261 369 6 0.417000 36.874842 19.117793 11.497262
6262 370 5 -0.834000 59.097273 38.628983 11.771408
6263 370 6 0.417000 58.617269 39.423198 12.006038
6264 370 6 0.417000 59.036396 38.584860 10.817166
6265 371 5 -0.834000 12.984066 38.640552 8.170169
6266 371 6 0.417000 13.774357 38.188120 7.875249
6267 371 6 0.417000 12.658910 39.089130 7.389603
6268 372 5 -0.834000 44.616792 7.159848 11.788654
6269 372 6 0.417000 44.777682 6.282104 11.442373
6270 372 6 0.417000 44.787216 7.082460 12.727376
6271 373 5 -0.834000 18.820018 7.136529 8.281280
6272 373 6 0.417000 18.271959 7.898354 8.469655
6273 373 6 0.417000 19.678540 7.364417 8.637986
6274 374 5 -0.834000 47.568713 38.499548 8.316112
6275 374 6 0.417000 48.143539 39.264300 8.285095
6276 374 6 0.417000 47.945460 37.943652 8.998221
6277 375 5 -0.834000 73.645377 15.641315 11.773638
6278 375 6 0.417000 74.254199 14.913452 11.648006
6279 375 6 0.417000 74.036102 16.367603 11.287767
6280 376 5 -0.834000 13.010025 7.181231 11.738372
6281 376 6 0.417000 12.592824 7.124477 10.878748
6282 376 6 0.417000 13.851668 7.604600 11.569174
6283 377 5 -0.834000 36.023382 18.548429 8.206048
6284 377 6 0.417000 36.401451 19.423514 8.292778
6285 377 6 0.417000 36.767274 17.954544 8.306831
6286 378 5 -0.834000 99.534725 21.354244 8.246768
6287 378 6 0.417000 99.756687 20.476898 7.934953
6288 378 6 0.417000 100.380380 21.780373 8.386456
6289 379 5 -0.834000 119.723353 27.219841 11.757144
6290 379 6 0.417000 120.124523 26.402944 12.053747
6291 379 6 0.417000 120.379996 27.615386 11.183912
6292 380 5 -0.834000 76.408105 24.307675 11.661115
6293 380 6 0.417000 76.132058 24.506521 10.766414
6294 380 6 0.417000 76.573743 23.364923 11.657237
6295 381 5 -0.834000 12.942118 4.290348 8.273712
6296 381 6 0.417000 13.224351 5.115893 8.667480
6297 381 6 0.417000 12.194398 4.529042 7.725833
6298 382 5 -0.834000 105.230241 10.059772 11.709077
6299 382 6 0.417000 106.114460 10.011711 12.072503
6300 382 6 0.417000 104.727733 9.421344 12.215167
6301 383 5 -0.834000 148.654758 32.947247 8.223475
6302 383 6 0.417000 147.909237 33.478705 8.502729
6303 383 6 0.417000 149.167785 33.529255 7.662850
6304 384 5 -0.834000 82.117734 27.163661 11.823119
6305 384 6 0.417000 81.965182 27.824629 11.147782
6306 384 6 0.417000 83.013111 26.863349 11.667090
6307 385 5 -0.834000 148.561487 27.218463 11.737936
6308 385 6 0.417000 148.333228 27.487618 10.848169
6309 385 6 0.417000 148.857420 28.023115 12.163600
6310 386 5 -0.834000 122.603815 1.409085 8.166499
6311 386 6 0.417000 121.949859 2.066630 7.929416
6312 386 6 0.417000 122.200008 0.915504 8.880327
6313 387 5 -0.834000 139.844970 35.788193 8.248241
6314 387 6 0.417000 139.073393 35.429038 7.810168
6315 387 6 0.417000 139.628166 36.708025 8.400351
6316 388 5 -0.834000 47.637325 35.750696 8.185292
6317 388 6 0.417000 47.093341 35.985383 7.433471
6318 388 6 0.417000 47.856446 34.829573 8.044755
6319 389 5 -0.834000 148.465898 18.501233 8.154674
6320 389 6 0.417000 147.510914 18.523267 8.093426
6321 389 6 0.417000 148.657625 18.828436 9.033544
6322 390 5 -0.834000 128.311699 1.441383 8.227456
6323 390 6 0.417000 128.917991 0.764794 7.926011
6324 390 6 0.417000 128.525954 2.209068 7.697374
6325 391 5 -0.834000 90.809029 30.057877 11.705284
6326 391 6 0.417000 91.597254 30.314880 11.226867
6327 391 6 0.417000 90.112458 30.593368 11.325456
6328 392 5 -0.834000 88.062093 24.215857 11.691674
6329 392 6 0.417000 87.300321 24.791000 11.619943
6330 392 6 0.417000 88.033146 23.890316 12.591350
6331 393 5 -0.834000 1.383083 9.937096 11.677429
6332 393 6 0.417000 0.620940 9.511145 11.285081
6333 393 6 0.417000 1.485433 10.749657 11.181949
6334 394 5 -0.834000 105.384059 7.067671 11.835173
6335 394 6 0.417000 105.684962 6.184941 11.619589
6336 394 6 0.417000 105.792401 7.261007 12.679039
6337 395 5 -0.834000 139.864687 18.493308 11.721563
6338 395 6 0.417000 140.385657 17.705970 11.563701
6339 395 6 0.417000 140.480182 19.216449 11.601289
6340 396 5 -0.834000 82.208608 15.744492 8.345054
6341 396 6 0.417000 82.640483 14.964957 7.995709
6342 396 6 0.417000 82.913661 16.246681 8.753637
6343 397 5 -0.834000 122.602599 35.736010 8.287375
6344 397 6 0.417000 121.850859 35.805218 7.698877
6345 397 6 0.417000 123.167204 36.469222 8.042724
6346 398 5 -0.834000 18.687668 21.415718 8.303181
6347 398 6 0.417000 17.736150 21.418253 8.407292
6348 398 6 0.417000 18.960862 22.292768 8.572219
6349 399 5 -0.834000 33.109537 9.933653 8.282902
6350 399 6 0.417000 33.959304 9.543357 8.078463
6351 399 6 0.417000 33.295659 10.864977 8.402176
6352 400 5 -0.834000 33.185370 24.229561 11.717409
6353 400 6 0.417000 32.810356 24.842722 12.349572
6354 400 6 0.417000 32.630526 23.452014 11.779057
6355 401 5 -0.834000 35.995746 29.933955 8.272761
6356 401 6 0.417000 35.714233 29.231194 8.858517
6357 401 6 0.417000 36.856427 29.655346 7.959971
6358 402 5 -0.834000 76.354965 4.249627 11.817589
6359 402 6 0.417000 75.677327 3.611148 11.595368
6360 402 6 0.417000 76.821317 4.400611 10.995426
6361 403 5 -0.834000 105.243221 18.552786 8.191221
6362 403 6 0.417000 106.064679 19.018970 8.035937
6363 403 6 0.417000 105.381752 18.091450 9.018390
6364 404 5 -0.834000 4.303053 4.228359 11.764038
6365 404 6 0.417000 4.780465 4.021505 12.567481
6366 404 6 0.417000 3.393777 4.002702 11.960324
6367 405 5 -0.834000 125.460969 18.533750 8.170573
6368 405 6 0.417000 125.156859 19.396578 8.452132
6369 405 6 0.417000 124.792143 17.927739 8.489406
6370 406 5 -0.834000 110.973010 12.908375 11.700132
6371 406 6 0.417000 110.686346 12.119292 12.159920
6372 406 6 0.417000 110.714802 12.762951 10.789960
6373 407 5 -0.834000 70.598017 38.542400 8.265276
6374 407 6 0.417000 70.867888 37.874082 7.635393
6375 407 6 0.417000 71.225130 39.255063 8.142505
6376 408 5 -0.834000 125.575855 4.233295 8.346300
6377 408 6 0.417000 124.863799 3.691805 8.005717
6378 408 6 0.417000 125.189688 5.103631 8.444396
6379 409 5 -0.834000 4.306496 1.348514 11.838665
6380 409 6 0.417000 4.131406 1.196712 10.909939
6381 409 6 0.417000 5.142485 1.814528 11.852233
6382 410 5 -0.834000 50.396135 1.342863 8.182479
6383 410 6 0.417000 51.271809 1.167605 7.837934
6384 410 6 0.417000 50.545944 1.633554 9.082083
6385 411 5 -0.834000 122.687896 24.202351 11.686884
6386 411 6 0.417000 123.056028 23.364408 11.967172
6387 411 6 0.417000 121.950495 23.964527 11.124825
6388 412 5 -0.834000 142.762640 4.368556 11.837241
6389 412 6 0.417000 142.784114 4.993169 11.112238
6390 412 6 0.417000 141.868020 4.421810 12.173471
6391 413 5 -0.834000 116.880852 9.978309 11.798855
6392 413 6 0.417000 116.043360 10.425910 11.678475
6393 413 6 0.417000 117.300031 10.444019 12.522481
6394 414 5 -0.834000 142.870484 18.603092 8.312002
6395 414 6 0.417000 143.722013 18.930337 8.022104
6396 414 6 0.417000 142.829827 18.829932 9.241045
6397 415 5 -0.834000 33.139794 15.623404 11.739829
6398 415 6 0.417000 33.280697 14.900936 11.127932
6399 415 6 0.417000 32.277353 15.968616 11.509056
6400 416 5 -0.834000 96.706747 7.078755 11.675852
6401 416 6 0.417000 96.663426 7.097765 10.719822
6402 416 6 0.417000 95.866996 7.438679 11.961341
6403 417 5 -0.834000 79.316632 32.817795 11.651034
6404 417 6 0.417000 79.837979 33.147717 12.382868
6405 417 6 0.417000 78.481221 33.279271 11.724237
6406 418 5 -0.834000 44.771023 12.901550 8.343432
6407 418 6 0.417000 43.934846 13.175423 7.966561
6408 418 6 0.417000 44.574821 12.731564 9.264758
6409 419 5 -0.834000 21.539028 12.781357 8.235001
6410 419 6 0.417000 21.068412 13.614856 8.229321
6411 419 6 0.417000 20.904996 12.145502 7.903454
6412 420 5 -0.834000 76.488947 1.382050 8.173030
6413 420 6 0.417000 76.825572 1.931223 8.881072
6414 420 6 0.417000 76.450914 1.964840 7.414649
6415 421 5 -0.834000 102.328276 15.690470 8.220395
6416 421 6 0.417000 101.673808 15.022854 8.425804
6417 421 6 0.417000 102.298208 16.292745 8.963760
6418 422 5 -0.834000 21.717635 24.275747 11.741428
6419 422 6 0.417000 22.210302 23.538487 12.101927
6420 422 6 0.417000 20.870084 24.237678 12.184643
6421 423 5 -0.834000 70.762138 24.293282 11.662508
6422 423 6 0.417000 69.861815 23.993194 11.537615
6423 423 6 0.417000 70.739152 24.786439 12.482568
6424 424 5 -0.834000 79.232944 27.129788 11.696995
6425 424 6 0.417000 79.499177 27.963917 11.310238
6426 424 6 0.417000 79.045659 27.338515 12.612194
6427 425 5 -0.834000 53.394285 38.581392 11.706168
6428 425 6 0.417000 53.553276 37.914681 12.374337
6429 425 6 0.417000 53.951345 39.316200 11.963022
6430 426 5 -0.834000 85.002688 9.960120 8.289557
6431 426 6 0.417000 85.284436 9.756870 9.181487
6432 426 6 0.417000 84.261416 9.375145 8.132863
6433 427 5 -0.834000 44.723837 35.640263 11.663387
6434 427 6 0.417000 44.835786 35.205382 10.818060
6435 427 6 0.417000 45.616016 35.793221 11.974599
6436 428 5 -0.834000 41.853735 12.954613 8.330462
6437 428 6 0.417000 42.510742 13.335615 7.747873
6438 428 6 0.417000 41.523690 12.192679 7.854270
6439 429 5 -0.834000 13.035638 12.763865 11.796178
6440 429 6 0.417000 13.323227 13.307475 12.529671
6441 429 6 0.417000 12.326912 13.263374 11.390677
6442 430 5 -0.834000 36.032597 21.468407 11.663075
6443 430 6 0.417000 36.816381 21.374334 11.121721
6444 430 6 0.417000 35.318127 21.157743 11.106970
6445 431 5 -0.834000 96.586958 29.978334 8.322289
6446 431 6 0.417000 96.836925 30.458390 9.111779
6447 431 6 0.417000 96.694351 29.056767 8.557686
6448 432 5 -0.834000 87.987747 18.635106 8.303123
6449 432 6 0.417000 87.945368 17.913656 7.675472
6450 432 6 0.417000 88.595320 19.260881 7.908799
6451 433 5 -0.834000 79.276376 18.620513 8.336107
6452 433 6 0.417000 79.764250 19.352050 7.957868
6453 433 6 0.417000 79.679293 18.480875 9.193073
6454 434 5 -0.834000 139.957182 21.473659 8.183645
6455 434 6 0.417000 139.540598 20.721219 8.603792
6456 434 6 0.417000 139.227476 22.006783 7.868146
6457 435 5 -0.834000 59.137369 29.915488 8.251199
6458 435 6 0.417000 58.302008 30.382747 8.242602
6459 435 6 0.417000 59.772515 30.564924 8.552952
6460 436 5 -0.834000 87.898782 12.926649 8.242922
6461 436 6 0.417000 87.161819 12.514503 8.693757
6462 436 6 0.417000 88.552799 13.064149 8.928186
6463 437 5 -0.834000 4.308403 12.905008 8.263833
6464 437 6 0.417000 4.393048 12.819546 9.213446
6465 437 6 0.417000 3.946922 13.781624 8.133042
6466 438 5 -0.834000 113.896816 10.029160 8.250214
6467 438 6 0.417000 114.100125 10.668043 8.933387
6468 438 6 0.417000 112.970933 9.824486 8.380909
6469 439 5 -0.834000 90.841713 12.920195 8.278575
6470 439 6 0.417000 90.977209 13.809631 7.951810
6471 439 6 0.417000 91.691278 12.664500 8.637868
6472 440 5 -0.834000 38.937800 1.526274 11.772932
6473 440 6 0.417000 39.492925 2.281467 11.578634
6474 440 6 0.417000 38.803806 1.102479 10.925185
6475 441 5 -0.834000 122.620554 29.990741 8.225984
6476 441 6 0.417000 123.067294 29.155022 8.361000
6477 441 6 0.417000 122.927469 30.545531 8.943092
6478 442 5 -0.834000 50.467938 7.097792 8.328457
6479 442 6 0.417000 51.208450 7.679025 8.155132
6480 442 6 0.417000 50.780725 6.508837 9.015136
6481 443 5 -0.834000 27.323163 24.375756 8.289511
6482 443 6 0.417000 28.019912 24.993240 8.511967
6483 443 6 0.417000 27.529295 24.092005 7.398878
6484 444 5 -0.834000 24.457736 29.924405 8.215010
6485 444 6 0.417000 24.531239 30.526350 7.474407
6486 444 6 0.417000 24.458931 30.491442 8.986177
6487 445 5 -0.834000 21.615436 10.088000 11.757868
6488 445 6 0.417000 21.175284 10.937627 11.732741
6489 445 6 0.417000 22.515381 10.291385 12.012750
6490 446 5 -0.834000 47.600912 38.662666 11.786828
6491 446 6 0.417000 48.291462 39.285398 11.559721
6492 446 6 0.417000 47.955317 37.809471 11.536453
6493 447 5 -0.834000 137.072074 38.521244 11.760673
6494 447 6 0.417000 137.216828 37.580797 11.864779
6495 447 6 0.417000 136.120004 38.615689 11.731103
6496 448 5 -0.834000 142.716641 9.940657 8.277482
6497 448 6 0.417000 143.251262 10.635178 8.662258
6498 448 6 0.417000 143.285356 9.170730 8.279996
6499 449 5 -0.834000 148.495121 21.435978 11.724874
6500 449 6 0.417000 148.398110 21.258211 10.789342
6501 449 6 0.417000 148.673642 20.580102 12.114538
6502 450 5 -0.834000 85.036037 21.330087 8.212674
6503 450 6 0.417000 84.938595 20.552916 7.662454
6504 450 6 0.417000 84.139571 21.577968 8.438807
6505 451 5 -0.834000 7.198979 35.690913 11.770312
6506 451 6 0.417000 6.478646 36.036963 12.297190
6507 451 6 0.417000 6.769359 35.218377 11.057312
6508 452 5 -0.834000 30.385292 12.927358 11.730125
6509 452 6 0.417000 30.450380 12.031955 11.398088
6510 452 6 0.417000 30.030409 13.430011 10.996892
6511 453 5 -0.834000 116.871616 24.227747 11.825893
6512 453 6 0.417000 117.680525 24.174618 12.334887
6513 453 6 0.417000 116.268057 23.633467 12.271741
6514 454 5 -0.834000 12.914919 32.820191 8.311767
6515 454 6 0.417000 12.962353 33.461733 9.020573
6516 454 6 0.417000 13.072823 33.329041 7.516550
6517 455 5 -0.834000 53.460375 21.328880 8.339740
6518 455 6 0.417000 54.362712 21.231796 8.644032
6519 455 6 0.417000 52.986891 21.671000 9.098027
6520 456 5 -0.834000 108.087501 32.907646 8.223469
6521 456 6 0.417000 107.347198 33.407453 8.567528
6522 456 6 0.417000 108.775508 33.014981 8.880246
6523 457 5 -0.834000 1.388640 4.299255 8.295263
6524 457 6 0.417000 1.219045 5.227589 8.455466
6525 457 6 0.417000 1.763610 4.272218 7.414980
6526 458 5 -0.834000 73.529120 18.519991 8.177009
6527 458 6 0.417000 72.891797 19.228043 8.270358
6528 458 6 0.417000 74.269976 18.922189 7.723577
6529 459 5 -0.834000 131.303894 38.633574 11.739195
6530 459 6 0.417000 132.012716 38.223250 11.243779
6531 459 6 0.417000 131.198709 39.496209 11.337912
6532 460 5 -0.834000 73.558334 10.018703 11.666557
6533 460 6 0.417000 72.931950 9.472812 12.141823
6534 460 6 0.417000 73.871844 9.460351 10.955088
6535 461 5 -0.834000 56.208182 1.449055 8.220152
6536 461 6 0.417000 56.588316 0.572680 8.280947
6537 461 6 0.417000 55.902636 1.640158 9.106918
6538 462 5 -0.834000 56.173255 21.331457 11.748071
6539 462 6 0.417000 56.331200 20.509637 12.212719
6540 462 6 0.417000 55.868343 21.935282 12.425312
6541 463 5 -0.834000 59.125321 4.235147 8.158059
6542 463 6 0.417000 58.595746 5.013988 7.987210
6543 463 6 0.417000 59.838452 4.547281 8.715059
6544 464 5 -0.834000 145.713517 32.901943 11.657418
6545 464 6 0.417000 145.774249 31.955146 11.530465
6546 464 6 0.417000 144.944409 33.020498 12.214779
6547 465 5 -0.834000 70.619677 15.643708 8.232693
6548 465 6 0.417000 70.641969 14.749296 7.892454
6549 465 6 0.417000 70.612354 16.197376 7.451905
6550 466 5 -0.834000 119.730908 12.884393 8.302336
6551 466 6 0.417000 119.170018 13.353293 7.684463
6552 466 6 0.417000 120.597767 12.896749 7.896585
6553 467 5 -0.834000 12.989668 12.889847 8.250712
6554 467 6 0.417000 12.789787 13.620856 8.835438
6555 467 6 0.417000 12.540593 13.106405 7.433604
6556 468 5 -0.834000 4.390717 10.006425 8.267733
6557 468 6 0.417000 4.349263 9.469421 7.476443
6558 468 6 0.417000 4.184038 10.891706 7.968075
6559 469 5 -0.834000 93.716996 24.368544 8.338292
6560 469 6 0.417000 94.324025 24.611245 7.639119
6561 469 6 0.417000 92.888586 24.200316 7.889216
6562 470 5 -0.834000 36.090587 24.318157 11.731983
6563 470 6 0.417000 35.925444 25.193978 12.081122
6564 470 6 0.417000 37.029178 24.181488 11.860825
6565 471 5 -0.834000 79.273035 4.251085 11.746257
6566 471 6 0.417000 79.155770 3.716289 10.961098
6567 471 6 0.417000 78.439340 4.709563 11.851059
6568 472 5 -0.834000 90.952899 24.226338 11.707650
6569 472 6 0.417000 91.554292 23.487196 11.798355
6570 472 6 0.417000 90.107216 23.824607 11.508490
6571 473 5 -0.834000 122.683583 9.991672 8.305411
6572 473 6 0.417000 122.138237 10.751055 8.510758
6573 473 6 0.417000 123.539355 10.362136 8.089442
6574 474 5 -0.834000 122.639618 15.686436 11.672140
6575 474 6 0.417000 122.270946 16.566698 11.745975
6576 474 6 0.417000 123.119452 15.695905 10.843948
6577 475 5 -0.834000 47.510712 27.204500 8.334187
6578 475 6 0.417000 47.155768 26.316007 8.362923
6579 475 6 0.417000 48.411392 27.093388 8.029784
6580 476 5 -0.834000 148.513598 15.756227 11.751544
6581 476 6 0.417000 148.177651 16.616064 12.004629
6582 476 6 0.417000 148.432877 15.738216 10.797924
6583 477 5 -0.834000 33.208865 32.838379 11.801044
6584 477 6 0.417000 32.916151 32.001109 12.160946
6585 477 6 0.417000 34.083914 32.964527 12.167931
6586 478 5 -0.834000 137.117856 10.000251 8.310915
6587 478 6 0.417000 136.194649 10.246907 8.366432
6588 478 6 0.417000 137.156098 9.125180 8.696947
6589 479 5 -0.834000 134.083820 18.579661 8.334965
6590 479 6 0.417000 133.259259 18.493957 8.813489
6591 479 6 0.417000 134.699037 18.026060 8.815865
6592 480 5 -0.834000 142.742628 38.491937 8.209636
6593 480 6 0.417000 142.448897 37.768235 7.656273
6594 480 6 0.417000 143.085763 38.068436 8.996488
6595 481 5 -0.834000 131.217708 21.482025 8.186982
6596 481 6 0.417000 131.071327 21.762152 9.090494
6597 481 6 0.417000 130.438968 21.777142 7.715069
6598 482 5 -0.834000 59.088018 38.628163 8.230522
6599 482 6 0.417000 59.276231 37.784918 7.818522
6600 482 6 0.417000 58.994908 38.425043 9.161277
6601 483 5 -0.834000 21.733946 29.906132 11.676344
6602 483 6 0.417000 21.535021 29.757930 10.751846
6603 483 6 0.417000 21.256329 30.705074 11.899515
6604 484 5 -0.834000 18.692594 4.349459 8.260782
6605 484 6 0.417000 19.159216 5.172900 8.117816
6606 484 6 0.417000 17.771943 4.603388 8.325239
6607 485 5 -0.834000 4.398993 7.108871 11.815027
6608 485 6 0.417000 4.475257 6.162229 11.934546
6609 485 6 0.417000 3.456931 7.268379 11.757512
6610 486 5 -0.834000 82.120433 1.433277 8.333108
6611 486 6 0.417000 81.569982 0.826229 8.827809
6612 486 6 0.417000 82.768900 0.874548 7.904686
6613 487 5 -0.834000 41.780384 15.642791 8.213691
6614 487 6 0.417000 41.832113 15.365288 7.299061
6615 487 6 0.417000 41.324460 16.483907 8.183864
6616 488 5 -0.834000 114.037019 12.949894 11.783047
6617 488 6 0.417000 114.025210 13.891535 11.954521
6618 488 6 0.417000 114.115943 12.549279 12.648790
6619 489 5 -0.834000 50.575845 12.814126 8.291003
6620 489 6 0.417000 50.658496 13.286718 9.119289
6621 489 6 0.417000 50.911011 13.422978 7.632828
6622 490 5 -0.834000 116.836807 38.516075 8.179205
6623 490 6 0.417000 117.294915 39.338308 8.353276
6624 490 6 0.417000 117.221352 38.195132 7.363513
6625 491 5 -0.834000 134.162356 35.706532 8.237486
6626 491 6 0.417000 134.529485 36.045979 9.053712
6627 491 6 0.417000 133.266634 35.455659 8.463266
6628 492 5 -0.834000 7.182959 24.227859 8.338020
6629 492 6 0.417000 6.559581 24.745931 8.847170
6630 492 6 0.417000 6.642903 23.762089 7.699560
6631 493 5 -0.834000 142.807846 35.639509 11.746879
6632 493 6 0.417000 142.769300 35.124921 12.553071
6633 493 6 0.417000 143.737176 35.838892 11.633639
6634 494 5 -0.834000 113.903744 1.406316 8.310649
6635 494 6 0.417000 113.722879 0.572820 8.745165
6636 494 6 0.417000 113.959508 1.185186 7.381013
6637 495 5 -0.834000 116.921349 30.003139 8.184449
6638 495 6 0.417000 116.473107 30.276592 7.384115
6639 495 6 0.417000 116.222940 29.673701 8.750070
6640 496 5 -0.834000 93.801488 1.333092 11.776875
6641 496 6 0.417000 93.838571 2.287073 11.707761
6642 496 6 0.417000 94.241537 1.017992 10.987381
6643 497 5 -0.834000 119.700094 29.966637 8.159787
6644 497 6 0.417000 120.516811 29.755363 7.707495
6645 497 6 0.417000 119.876910 29.768653 9.079444
6646 498 5 -0.834000 30.244197 32.772837 11.806057
6647 498 6 0.417000 30.129917 33.344997 12.564876
6648 498 6 0.417000 29.623910 32.057954 11.948943
6649 499 5 -0.834000 61.982636 15.792838 11.798891
6650 499 6 0.417000 62.786501 16.311681 11.827774
6651 499 6 0.417000 62.138679 15.146668 11.110162
6652 500 5 -0.834000 99.574268 7.241561 11.847291
6653 500 6 0.417000 98.860385 6.990031 12.433239
6654 500 6 0.417000 100.285618 7.500527 12.433080
6655 501 5 -0.834000 116.855324 21.429197 8.245271
6656 501 6 0.417000 115.993015 21.737793 8.523523
6657 501 6 0.417000 116.784744 21.344956 7.294401
6658 502 5 -0.834000 139.925325 18.561471 8.200721
6659 502 6 0.417000 139.014780 18.785089 8.008015
6660 502 6 0.417000 139.874177 17.725855 8.664792
6661 503 5 -0.834000 30.273733 35.786196 11.684594
6662 503 6 0.417000 31.047446 35.599607 11.152818
6663 503 6 0.417000 29.884257 36.560417 11.278242
6664 504 5 -0.834000 30.198779 18.668266 8.296118
6665 504 6 0.417000 29.898333 17.999547 8.911567
6666 504 6 0.417000 29.874147 18.374301 7.444983
6667 505 5 -0.834000 134.159290 24.252149 8.218634
6668 505 6 0.417000 133.303316 24.015718 7.861364
6669 505 6 0.417000 134.020159 25.104861 8.630649
6670 506 5 -0.834000 30.260241 21.332062 11.785349
6671 506 6 0.417000 29.998216 20.622019 12.371364
6672 506 6 0.417000 30.967386 20.959793 11.258478
6673 507 5 -0.834000 56.199427 38.644721 8.343327
6674 507 6 0.417000 56.233539 38.043764 7.599070
6675 507 6 0.417000 55.274362 38.878004 8.421212
6676 508 5 -0.834000 102.416318 4.244734 8.286933
6677 508 6 0.417000 102.856526 3.532595 8.750943
6678 508 6 0.417000 102.677105 5.035807 8.758553
6679 509 5 -0.834000 125.414334 35.769204 11.800979
6680 509 6 0.417000 126.115236 36.340423 12.115109
6681 509 6 0.417000 125.054442 36.226571 11.041029
6682 510 5 -0.834000 79.399367 15.626308 8.247619
6683 510 6 0.417000 78.556487 16.043030 8.426862
6684 510 6 0.417000 79.711899 16.050852 7.448671
6685 511 5 -0.834000 96.710966 1.423460 11.747781
6686 511 6 0.417000 97.596193 1.136733 11.523296
6687 511 6 0.417000 96.428295 1.941796 10.994351
6688 512 5 -0.834000 36.032075 10.075864 11.799795
6689 512 6 0.417000 36.734341 9.758022 12.367273
6690 512 6 0.417000 36.199436 9.659142 10.954476
6691 513 5 -0.834000 102.411387 9.946232 8.270409
6692 513 6 0.417000 102.586501 9.015645 8.130502
6693 513 6 0.417000 103.162354 10.393121 7.879807
6694 514 5 -0.834000 53.325770 15.644720 11.671487
6695 514 6 0.417000 53.165715 15.108689 10.894773
6696 514 6 0.417000 53.108483 16.535653 11.397160
6697 515 5 -0.834000 85.173922 35.721554 11.740940
6698 515 6 0.417000 85.301018 34.919733 11.233829
6699 515 6 0.417000 85.696012 35.590244 12.532402
6700 516 5 -0.834000 108.246640 12.932064 8.287206
6701 516 6 0.417000 107.452924 12.773900 8.798312
6702 516 6 0.417000 107.936033 13.037142 7.387921
6703 517 5 -0.834000 67.696090 12.899280 11.846225
6704 517 6 0.417000 68.462086 13.411265 11.586701
6705 517 6 0.417000 68.017727 11.999724 11.906058
6706 518 5 -0.834000 122.563827 4.211049 8.331083
6707 518 6 0.417000 122.497400 4.631300 9.188526
6708 518 6 0.417000 121.665878 4.198460 7.999780
6709 519 5 -0.834000 41.882762 32.836343 11.732416
6710 519 6 0.417000 41.864273 31.917812 12.001101
6711 519 6 0.417000 42.080967 33.317456 12.535831
6712 520 5 -0.834000 1.405405 15.797375 8.314836
6713 520 6 0.417000 1.852843 15.540152 9.120979
6714 520 6 0.417000 0.514387 15.463126 8.417774
6715 521 5 -0.834000 139.866995 7.112446 11.795974
6716 521 6 0.417000 139.213442 7.216368 12.487566
6717 521 6 0.417000 139.386835 6.714354 11.069888
6718 522 5 -0.834000 102.472385 29.927773 11.650098
6719 522 6 0.417000 103.234160 29.417031 11.924093
6720 522 6 0.417000 102.179744 30.368895 12.447597
6721 523 5 -0.834000 27.418847 35.783978 8.348600
6722 523 6 0.417000 28.004866 35.745148 9.104447
6723 523 6 0.417000 27.972562 35.550923 7.603405
6724 524 5 -0.834000 79.292041 9.983311 11.751644
6725 524 6 0.417000 78.964259 9.369035 11.094790
6726 524 6 0.417000 79.798598 9.440731 12.355994
6727 525 5 -0.834000 119.792956 12.873631 11.697721
6728 525 6 0.417000 119.338423 12.134776 12.102351
6729 525 6 0.417000 119.508491 13.635780 12.202141
6730 526 5 -0.834000 137.061039 18.617562 11.763517
6731 526 6 0.417000 137.091355 17.999024 12.493396
6732 526 6 0.417000 136.127526 18.770092 11.616821
6733 527 5 -0.834000 18.698722 27.235091 11.702957
6734 527 6 0.417000 18.818177 26.604806 10.992532
6735 527 6 0.417000 18.439325 28.045182 11.263984
6736 528 5 -0.834000 76.403975 12.910826 8.165786
6737 528 6 0.417000 76.483626 13.849373 7.995443
6738 528 6 0.417000 76.981633 12.752561 8.912443
6739 529 5 -0.834000 15.864425 1.431483 11.842070
6740 529 6 0.417000 16.325296 2.192499 12.195175
6741 529 6 0.417000 15.674919 0.889147 12.607701
6742 530 5 -0.834000 1.360847 27.157826 8.345257
6743 530 6 0.417000 1.178905 26.311621 7.936520
6744 530 6 0.417000 1.286154 27.790449 7.630806
6745 531 5 -0.834000 64.873080 12.899107 8.346027
6746 531 6 0.417000 65.664205 12.945630 7.809196
6747 531 6 0.417000 64.423805 13.728591 8.183730
6748 532 5 -0.834000 108.221547 38.507836 11.699107
6749 532 6 0.417000 107.948794 38.396032 12.609787
6750 532 6 0.417000 107.886192 39.369707 11.452232
6751 533 5 -0.834000 7.226274 35.617391 8.328443
6752 533 6 0.417000 6.978313 36.531869 8.464378
6753 533 6 0.417000 7.420636 35.557934 7.393072
6754 534 5 -0.834000 56.235643 7.212280 8.168201
6755 534 6 0.417000 56.560694 6.388756 8.532045
6756 534 6 0.417000 56.970681 7.557454 7.661441
6757 535 5 -0.834000 53.426180 35.710458 11.687708
6758 535 6 0.417000 53.716280 36.412843 11.105703
6759 535 6 0.417000 53.209414 34.986325 11.100448
6760 536 5 -0.834000 50.518537 35.715905 8.283529
6761 536 6 0.417000 50.666387 34.920585 7.771828
6762 536 6 0.417000 50.524109 35.420082 9.193853
6763 537 5 -0.834000 27.375482 7.127010 8.294965
6764 537 6 0.417000 28.278636 6.970427 8.019238
6765 537 6 0.417000 27.337275 6.794532 9.191754
6766 538 5 -0.834000 36.074609 21.388195 8.282746
6767 538 6 0.417000 36.391115 21.343180 9.184982
6768 538 6 0.417000 36.828417 21.695222 7.779020
6769 539 5 -0.834000 13.007483 1.358997 8.266283
6770 539 6 0.417000 13.144529 2.267183 7.996750
6771 539 6 0.417000 12.683395 1.421618 9.164770
6772 540 5 -0.834000 139.804259 15.800143 11.806690
6773 540 6 0.417000 140.180118 15.825883 12.686633
6774 540 6 0.417000 140.534266 16.018711 11.227424
6775 541 5 -0.834000 79.347583 18.657248 11.683279
6776 541 6 0.417000 78.778969 19.074265 12.330585
6777 541 6 0.417000 80.225623 18.720079 12.059218
6778 542 5 -0.834000 142.839263 32.822989 8.252440
6779 542 6 0.417000 142.097645 32.489498 7.747446
6780 542 6 0.417000 143.287071 32.038071 8.568040
6781 543 5 -0.834000 27.482112 12.798372 8.207558
6782 543 6 0.417000 27.004597 12.895560 7.383686
6783 543 6 0.417000 27.404991 11.868557 8.421397
6784 544 5 -0.834000 7.183179 10.032269 11.747004
6785 544 6 0.417000 6.474371 9.409009 11.906282
6786 544 6 0.417000 6.742556 10.821373 11.431731
6787 545 5 -0.834000 102.438353 29.977512 8.347947
6788 545 6 0.417000 102.353952 30.601940 9.068501
6789 545 6 0.417000 103.361271 29.723802 8.357110
6790 546 5 -0.834000 145.593726 7.142723 11.662856
6791 546 6 0.417000 145.728252 6.383211 12.229667
6792 546 6 0.417000 145.121844 6.796383 10.905487
6793 547 5 -0.834000 111.055095 21.453857 8.206660
6794 547 6 0.417000 110.179496 21.070020 8.253852
6795 547 6 0.417000 111.199655 21.607777 7.273042
6796 548 5 -0.834000 145.625523 9.914214 11.799815
6797 548 6 0.417000 146.057994 10.687069 12.162989
6798 548 6 0.417000 145.129102 9.550298 12.532866
6799 549 5 -0.834000 21.660307 38.540974 8.165702
6800 549 6 0.417000 21.411256 39.089216 8.909770
6801 549 6 0.417000 21.151693 37.737955 8.278409
6802 550 5 -0.834000 145.755453 1.424791 11.817815
6803 550 6 0.417000 145.008323 1.604543 11.247097
6804 550 6 0.417000 145.506807 1.798126 12.663408
6805 551 5 -0.834000 33.210397 4.342724 11.746811
6806 551 6 0.417000 32.332455 4.567843 12.054660
6807 551 6 0.417000 33.154278 3.414668 11.519227
6808 552 5 -0.834000 116.851494 7.157400 8.216498
6809 552 6 0.417000 116.356897 7.210959 7.398734
6810 552 6 0.417000 117.568509 6.553140 8.024168
6811 553 5 -0.834000 64.877451 21.410319 11.757558
6812 553 6 0.417000 64.648719 21.811351 10.919055
6813 553 6 0.417000 64.059996 21.021282 12.068443
6814 554 5 -0.834000 142.721825 29.912978 11.729840
6815 554 6 0.417000 141.889521 29.508712 11.974933
6816 554 6 0.417000 143.077129 29.338521 11.051615
6817 555 5 -0.834000 116.837331 18.594236 11.821647
6818 555 6 0.417000 117.382701 19.132679 12.395130
6819 555 6 0.417000 116.234824 18.145827 12.415067
6820 556 5 -0.834000 131.166932 4.227329 8.198226
6821 556 6 0.417000 131.950837 4.057070 8.720468
6822 556 6 0.417000 131.433455 4.907937 7.580188
6823 557 5 -0.834000 93.832790 27.097055 11.759431
6824 557 6 0.417000 93.500062 27.876663 12.204105
6825 557 6 0.417000 93.258296 26.389869 12.052819
6826 558 5 -0.834000 105.285711 29.976817 11.762727
6827 558 6 0.417000 104.708372 30.416805 12.386684
6828 558 6 0.417000 105.750883 30.688555 11.323096
6829 559 5 -0.834000 134.202132 29.956748 8.200387
6830 559 6 0.417000 133.617665 30.246572 8.900838
6831 559 6 0.417000 135.025954 29.754149 8.643672
6832 560 5 -0.834000 67.845444 35.674290 11.741731
6833 560 6 0.417000 68.563808 35.481463 12.344228
6834 560 6 0.417000 67.094891 35.204166 12.104890
6835 561 5 -0.834000 4.289903 15.693820 8.319561
6836 561 6 0.417000 3.795482 15.291231 9.033495
6837 561 6 0.417000 4.500894 14.966697 7.733893
6838 562 5 -0.834000 30.334348 4.256180 8.181976
6839 562 6 0.417000 30.733276 3.897637 8.974778
6840 562 6 0.417000 30.661534 5.154436 8.133824
6841 563 5 -0.834000 10.185281 15.642018 8.283083
6842 563 6 0.417000 11.004012 15.997496 7.937327
6843 563 6 0.417000 9.659152 16.413203 8.494495
6844 564 5 -0.834000 4.391603 29.967926 8.269487
6845 564 6 0.417000 3.500546 29.987311 8.618591
6846 564 6 0.417000 4.277719 29.992849 7.319412
6847 565 5 -0.834000 47.685856 18.626503 8.218695
6848 565 6 0.417000 47.682217 19.581153 8.148964
6849 565 6 0.417000 47.400135 18.450261 9.115096
6850 566 5 -0.834000 33.266402 7.108645 8.164763
6851 566 6 0.417000 33.688174 6.263651 8.320727
6852 566 6 0.417000 33.892731 7.594012 7.627769
6853 567 5 -0.834000 50.486136 21.476331 8.189435
6854 567 6 0.417000 49.751791 21.680723 8.768394
6855 567 6 0.417000 50.126510 20.855705 7.555618
6856 568 5 -0.834000 90.767759 27.223459 11.811004
6857 568 6 0.417000 91.363337 27.646719 12.429364
6858 568 6 0.417000 91.326063 26.967940 11.076676
6859 569 5 -0.834000 125.531007 30.060061 8.203341
6860 569 6 0.417000 125.139447 30.132131 7.332871
6861 569 6 0.417000 125.520943 29.122118 8.394110
6862 570 5 -0.834000 139.955375 38.512677 11.670703
6863 570 6 0.417000 140.133716 37.733803 12.197753
6864 570 6 0.417000 140.619738 39.145029 11.944536
6865 571 5 -0.834000 128.295434 24.316581 8.330665
6866 571 6 0.417000 128.600881 23.972154 7.491437
6867 571 6 0.417000 127.592816 23.721729 8.592794
6868 572 5 -0.834000 137.098874 9.986099 11.672258
6869 572 6 0.417000 137.225957 9.623567 10.795530
6870 572 6 0.417000 137.552491 9.374947 12.252739
6871 573 5 -0.834000 134.054701 1.335336 8.157279
6872 573 6 0.417000 134.424717 0.569456 8.596310
6873 573 6 0.417000 133.117878 1.292586 8.349025
6874 574 5 -0.834000 53.452632 4.277898 8.206315
6875 574 6 0.417000 53.118398 3.852284 8.995854
6876 574 6 0.417000 53.144435 5.181732 8.272124
6877 575 5 -0.834000 73.623318 38.642355 8.164768
6878 575 6 0.417000 74.043013 39.484073 7.987007
6879 575 6 0.417000 74.328760 38.000512 8.083398
6880 576 5 -0.834000 61.945388 10.058419 8.294266
6881 576 6 0.417000 61.928126 10.054554 9.251302
6882 576 6 0.417000 62.515930 10.792781 8.067494
6883 577 5 -0.834000 64.984963 10.059277 11.788311
6884 577 6 0.417000 65.929977 10.201618 11.734272
6885 577 6 0.417000 64.827685 9.838103 12.706231
6886 578 5 -0.834000 44.653732 15.640633 8.206947
6887 578 6 0.417000 44.714035 16.594881 8.251751
6888 578 6 0.417000 44.084996 15.471106 7.455927
6889 579 5 -0.834000 82.123990 9.961257 8.191817
6890 579 6 0.417000 82.168085 10.734685 8.754041
6891 579 6 0.417000 81.187897 9.821552 8.048836
6892 580 5 -0.834000 62.094254 18.629019 11.809711
6893 580 6 0.417000 62.460593 19.512867 11.780725
6894 580 6 0.417000 61.372286 18.647755 11.181504
6895 581 5 -0.834000 38.949562 18.617046 11.682407
6896 581 6 0.417000 38.405801 17.829487 11.664906
6897 581 6 0.417000 39.258950 18.715123 10.781911
6898 582 5 -0.834000 142.701523 12.842115 11.832204
6899 582 6 0.417000 142.849330 13.393127 11.063588
6900 582 6 0.417000 141.913654 13.203276 12.238476
6901 583 5 -0.834000 111.056816 27.128323 11.784421
6902 583 6 0.417000 110.128825 26.989307 11.595371
6903 583 6 0.417000 111.328294 26.336698 12.249030
6904 584 5 -0.834000 137.073945 15.675687 8.221808
6905 584 6 0.417000 136.225202 15.573204 8.652348
6906 584 6 0.417000 137.570150 16.251552 8.803522
6907 585 5 -0.834000 33.129337 21.499794 11.747177
6908 585 6 0.417000 33.035330 22.409673 12.029160
6909 585 6 0.417000 33.095207 21.539997 10.791431
6910 586 5 -0.834000 67.692804 38.608527 8.226963
6911 586 6 0.417000 67.225222 38.477945 7.402010
6912 586 6 0.417000 68.117798 37.767992 8.397585
6913 587 5 -0.834000 111.002923 12.934298 8.199388
6914 587 6 0.417000 111.939949 12.804213 8.053467
6915 587 6 0.417000 110.736223 12.183711 8.730164
6916 588 5 -0.834000 1.538950 32.891354 11.825851
6917 588 6 0.417000 2.176832 32.566661 11.190310
6918 588 6 0.417000 0.959486 33.457775 11.316322
6919 589 5 -0.834000 88.037289 27.050052 8.344895
6920 589 6 0.417000 87.965637 27.722691 9.022137
6921 589 6 0.417000 88.787167 27.321440 7.815496
6922 590 5 -0.834000 41.822078 21.346666 8.196824
6923 590 6 0.417000 41.215638 20.626476 8.369419
6924 590 6 0.417000 42.299979 21.460104 9.018392
6925 591 5 -0.834000 61.967355 9.975144 11.804936
6926 591 6 0.417000 61.675061 9.562778 12.617801
6927 591 6 0.417000 61.818004 10.910468 11.943121
6928 592 5 -0.834000 125.565268 32.838631 11.715965
6929 592 6 0.417000 125.994729 32.243149 12.330129
6930 592 6 0.417000 126.263838 33.117753 11.124084
6931 593 5 -0.834000 102.351239 12.902111 11.705811
6932 593 6 0.417000 101.986923 12.643757 12.552427
6933 593 6 0.417000 101.716933 12.582692 11.064048
6934 594 5 -0.834000 13.026067 30.035740 8.261322
6935 594 6 0.417000 12.613083 30.780636 7.824508
6936 594 6 0.417000 13.610137 29.663672 7.600520
6937 595 5 -0.834000 93.725300 24.239392 11.744004
6938 595 6 0.417000 93.523308 23.584416 11.075845
6939 595 6 0.417000 93.880288 25.045151 11.251091
6940 596 5 -0.834000 50.461002 38.576860 8.324249
6941 596 6 0.417000 50.916370 39.382726 8.568074
6942 596 6 0.417000 49.535910 38.767630 8.479304
6943 597 5 -0.834000 111.056900 4.195966 11.734306
6944 597 6 0.417000 111.731598 3.522515 11.647832
6945 597 6 0.417000 110.639050 4.010460 12.575270
6946 598 5 -0.834000 73.562283 4.368231 11.780242
6947 598 6 0.417000 74.028585 5.175317 11.997971
6948 598 6 0.417000 74.196044 3.671448 11.950749
6949 599 5 -0.834000 33.173727 38.570065 11.671481
6950 599 6 0.417000 33.498993 39.462147 11.792410
6951 599 6 0.417000 33.946336 38.015887 11.781906
6952 600 5 -0.834000 108.093289 24.357070 11.738641
6953 600 6 0.417000 107.484999 23.649280 11.525924
6954 600 6 0.417000 108.108187 24.381273 12.695419
6955 601 5 -0.834000 93.701518 4.333856 8.230969
6956 601 6 0.417000 93.575252 3.578017 7.657387
6957 601 6 0.417000 93.256073 5.052599 7.782396
6958 602 5 -0.834000 131.202827 7.177164 11.694093
6959 602 6 0.417000 131.718018 7.791752 12.216677
6960 602 6 0.417000 130.384498 7.640723 11.516097
6961 603 5 -0.834000 93.788559 38.513090 11.768994
6962 603 6 0.417000 93.488231 37.605837 11.714900
6963 603 6 0.417000 93.123776 39.014501 11.296890
6964 604 5 -0.834000 85.138599 7.128170 8.253953
6965 604 6 0.417000 85.391236 6.759889 9.100579
6966 604 6 0.417000 85.225982 6.399411 7.639537
6967 605 5 -0.834000 15.954578 12.840793 11.763542
6968 605 6 0.417000 15.697991 11.955852 12.022914
6969 605 6 0.417000 15.147411 13.238880 11.437597
6970 606 5 -0.834000 116.912764 18.489242 8.213678
6971 606 6 0.417000 117.534826 18.372800 8.931808
6972 606 6 0.417000 116.605445 17.604413 8.016533
6973 607 5 -0.834000 148.488528 24.320602 11.691304
6974 607 6 0.417000 148.891220 23.463944 11.833462
6975 607 6 0.417000 147.690952 24.131789 11.196881
6976 608 5 -0.834000 64.915148 38.613744 11.817959
6977 608 6 0.417000 64.106611 39.091349 12.003415
6978 608 6 0.417000 64.816832 37.784588 12.286004
6979 609 5 -0.834000 4.338916 24.304030 8.202850
6980 609 6 0.417000 5.108266 24.081493 7.678626
6981 609 6 0.417000 3.599646 23.957563 7.703178
6982 610 5 -0.834000 137.020650 12.817635 8.239546
6983 610 6 0.417000 137.133763 13.751951 8.414164
6984 610 6 0.417000 136.354477 12.780695 7.553193
6985 611 5 -0.834000 105.192710 24.210441 8.263869
6986 611 6 0.417000 104.258160 24.201156 8.057080
6987 611 6 0.417000 105.604928 23.750768 7.532426
6988 612 5 -0.834000 134.112163 38.569082 11.778270
6989 612 6 0.417000 135.040855 38.680987 11.575192
6990 612 6 0.417000 133.664106 38.726512 10.947190
6991 613 5 -0.834000 33.176399 4.273183 8.153870
6992 613 6 0.417000 33.403645 3.526821 8.708427
6993 613 6 0.417000 32.220950 4.250500 8.100631
6994 614 5 -0.834000 53.428107 32.866605 8.180829
6995 614 6 0.417000 52.559468 32.516667 8.378925
6996 614 6 0.417000 53.259678 33.737501 7.821102
6997 615 5 -0.834000 76.391552 21.516614 8.293384
6998 615 6 0.417000 75.754684 20.895793 7.939531
6999 615 6 0.417000 75.892781 22.322781 8.425876
7000 616 5 -0.834000 13.032535 18.566642 8.214298
7001 616 6 0.417000 13.855831 19.051528 8.271761
7002 616 6 0.417000 12.972395 18.096453 9.045885
7003 617 5 -0.834000 85.117788 24.210456 8.331821
7004 617 6 0.417000 85.788091 24.792370 7.973630
7005 617 6 0.417000 85.543883 23.354693 8.380253
7006 618 5 -0.834000 116.882230 27.128107 11.764514
7007 618 6 0.417000 116.304898 27.815378 11.431982
7008 618 6 0.417000 117.664354 27.185315 11.215660
7009 619 5 -0.834000 90.826387 35.813565 8.234093
7010 619 6 0.417000 91.228998 34.945327 8.216836
7011 619 6 0.417000 90.700218 36.037961 7.312160
7012 620 5 -0.834000 67.806475 15.713270 11.716290
7013 620 6 0.417000 67.099667 16.138770 12.201681
7014 620 6 0.417000 67.378276 15.342149 10.944833
7015 621 5 -0.834000 21.653061 7.057055 8.303678
7016 621 6 0.417000 22.054746 7.809602 7.869450
7017 621 6 0.417000 21.770651 6.333722 7.687890
7018 622 5 -0.834000 4.245837 27.130230 11.844701
7019 622 6 0.417000 4.629707 27.676808 11.159042
7020 622 6 0.417000 4.938164 26.509829 12.072775
7021 623 5 -0.834000 102.420051 18.646819 11.681862
7022 623 6 0.417000 103.118859 18.997718 12.233921
7023 623 6 0.417000 102.863903 18.368723 10.880681
7024 624 5 -0.834000 142.697118 18.635705 11.840823
7025 624 6 0.417000 142.383208 18.635770 12.745086
7026 624 6 0.417000 143.540185 18.184070 11.879486
7027 625 5 -0.834000 73.587918 1.474962 8.296445
7028 625 6 0.417000 73.702486 1.890347 7.441716
7029 625 6 0.417000 74.322225 1.796188 8.819741
7030 626 5 -0.834000 41.870776 38.576458 8.219111
7031 626 6 0.417000 42.447864 38.148902 8.851881
7032 626 6 0.417000 41.345029 37.864503 7.854500
7033 627 5 -0.834000 27.387311 10.060099 8.296207
7034 627 6 0.417000 26.519684 9.702783 8.485362
7035 627 6 0.417000 27.974666 9.306358 8.352067
7036 628 5 -0.834000 64.804271 15.686209 11.729133
7037 628 6 0.417000 65.212095 15.314388 10.947045
7038 628 6 0.417000 63.973292 15.218397 11.811943
7039 629 5 -0.834000 1.414340 21.355629 8.204491
7040 629 6 0.417000 1.829470 22.034074 7.671940
7041 629 6 0.417000 0.512940 21.317574 7.884707
7042 630 5 -0.834000 21.651448 29.943652 8.179759
7043 630 6 0.417000 20.790055 29.530885 8.117651
7044 630 6 0.417000 21.478195 30.878460 8.068634
7045 631 5 -0.834000 70.595400 21.501207 8.272076
7046 631 6 0.417000 69.811270 21.053418 8.589656
7047 631 6 0.417000 71.150328 21.591854 9.046718
7048 632 5 -0.834000 145.659044 4.263423 11.793816
7049 632 6 0.417000 145.277376 3.869649 12.578356
7050 632 6 0.417000 145.809497 5.177912 12.033203
7051 633 5 -0.834000 93.690484 32.849263 11.741504
7052 633 6 0.417000 94.215228 33.649593 11.760179
7053 633 6 0.417000 93.797238 32.471868 12.614664
7054 634 5 -0.834000 18.704159 27.089612 8.297533
7055 634 6 0.417000 18.641887 26.847800 7.373476
7056 634 6 0.417000 19.472547 27.658392 8.345505
7057 635 5 -0.834000 119.773586 35.780303 11.677844
7058 635 6 0.417000 118.871826 35.762310 11.357319
7059 635 6 0.417000 119.695969 35.636391 12.620976
7060 636 5 -0.834000 76.430074 24.198408 8.168483
7061 636 6 0.417000 76.768732 24.707514 7.432036
7062 636 6 0.417000 75.483757 24.172017 8.026996
7063 637 5 -0.834000 82.155260 7.161483 11.653599
7064 637 6 0.417000 81.517148 7.293207 12.354808
7065 637 6 0.417000 81.632069 6.881724 10.902442
7066 638 5 -0.834000 116.912903 1.344966 11.838699
7067 638 6 0.417000 117.803695 1.001874 11.909482
7068 638 6 0.417000 116.853756 1.676055 10.942532
7069 639 5 -0.834000 62.042232 12.772721 8.300849
7070 639 6 0.417000 62.802166 12.425664 7.833640
7071 639 6 0.417000 61.922458 12.176859 9.040332
7072 640 5 -0.834000 82.184923 7.202161 8.277734
7073 640 6 0.417000 82.891506 6.881907 7.717011
7074 640 6 0.417000 82.434612 6.926247 9.159640
7075 641 5 -0.834000 108.181512 12.872013 11.836923
7076 641 6 0.417000 109.101776 12.679229 11.657534
7077 641 6 0.417000 108.105603 12.814930 12.789399
7078 642 5 -0.834000 33.201490 30.008322 11.845443
7079 642 6 0.417000 33.532002 30.793245 12.282352
7080 642 6 0.417000 33.766460 29.903917 11.079846
7081 643 5 -0.834000 96.732739 12.796993 11.764436
7082 643 6 0.417000 97.131705 13.408937 12.382969
7083 643 6 0.417000 96.580373 12.002996 12.276866
7084 644 5 -0.834000 128.464733 30.047457 8.179785
7085 644 6 0.417000 128.685398 29.144996 8.410227
7086 644 6 0.417000 128.193185 30.001518 7.263061
7087 645 5 -0.834000 128.385267 18.622744 8.312260
7088 645 6 0.417000 127.544216 18.194977 8.473136
7089 645 6 0.417000 128.153912 19.501529 8.011523
7090 646 5 -0.834000 76.349684 9.905589 11.695302
7091 646 6 0.417000 76.329598 10.847702 11.863385
7092 646 6 0.417000 75.927700 9.516131 12.461124
7093 647 5 -0.834000 21.609366 18.541255 11.799781
7094 647 6 0.417000 21.859910 19.362659 11.376989
7095 647 6 0.417000 22.422758 18.208951 12.179520
7096 648 5 -0.834000 38.922105 7.156531 8.305531
7097 648 6 0.417000 39.418884 7.963882 8.172765
7098 648 6 0.417000 39.214299 6.576568 7.602326
7099 649 5 -0.834000 41.852647 10.074991 8.249909
7100 649 6 0.417000 41.462254 10.073429 9.123878
7101 649 6 0.417000 42.758286 10.350369 8.392099
7102 650 5 -0.834000 24.523025 32.940929 11.696913
7103 650 6 0.417000 23.649962 32.561632 11.797550
7104 650 6 0.417000 24.437686 33.547933 10.961729
7105 651 5 -0.834000 116.776823 1.377572 8.220603
7106 651 6 0.417000 116.879007 2.300252 7.987254
7107 651 6 0.417000 117.665695 1.078684 8.412446
7108 652 5 -0.834000 15.832660 32.953122 11.655045
7109 652 6 0.417000 16.504546 33.599495 11.871845
7110 652 6 0.417000 15.456715 33.264661 10.831734
7111 653 5 -0.834000 105.263315 27.098421 8.284482
7112 653 6 0.417000 105.521538 26.398531 7.684727
7113 653 6 0.417000 105.134753 26.658910 9.125038
7114 654 5 -0.834000 62.044244 7.050638 11.843982
7115 654 6 0.417000 62.792038 7.607267 11.626725
7116 654 6 0.417000 61.278921 7.600115 11.674902
7117 655 5 -0.834000 85.039176 35.691655 8.269674
7118 655 6 0.417000 85.967301 35.882151 8.405788
7119 655 6 0.417000 85.025557 35.075344 7.537413
7120 656 5 -0.834000 119.683494 7.121982 8.335368
7121 656 6 0.417000 119.658841 7.953523 8.808828
7122 656 6 0.417000 119.354548 6.478564 8.963094
7123 657 5 -0.834000 38.955155 32.917413 11.737276
7124 657 6 0.417000 39.147126 32.417394 12.530598
7125 657 6 0.417000 38.565172 32.279257 11.139863
7126 658 5 -0.834000 47.646134 9.987914 8.291280
7127 658 6 0.417000 46.946475 10.276341 7.705175
7128 658 6 0.417000 48.323527 10.658634 8.204650
7129 659 5 -0.834000 105.340504 4.337789 11.727436
7130 659 6 0.417000 104.936239 3.472211 11.787237
7131 659 6 0.417000 106.268852 4.181563 11.900629
7132 660 5 -0.834000 50.495340 27.114001 11.828527
7133 660 6 0.417000 51.019449 26.639530 11.183222
7134 660 6 0.417000 49.843286 26.477933 12.122595
7135 661 5 -0.834000 145.771937 15.671900 8.181577
7136 661 6 0.417000 144.833771 15.651289 7.992760
7137 661 6 0.417000 146.058001 16.535044 7.882611
7138 662 5 -0.834000 50.418738 4.291970 8.236216
7139 662 6 0.417000 49.527847 4.006186 8.034049
7140 662 6 0.417000 50.979724 3.616072 7.855836
7141 663 5 -0.834000 113.878987 24.285755 8.156956
7142 663 6 0.417000 113.352336 24.794409 7.540399
7143 663 6 0.417000 113.284722 23.607206 8.477348
7144 664 5 -0.834000 116.816973 30.060264 11.834623
7145 664 6 0.417000 117.623849 30.533972 11.632674
7146 664 6 0.417000 116.706966 29.451362 11.104302
7147 665 5 -0.834000 134.167229 21.508592 11.665299
7148 665 6 0.417000 134.832957 21.969733 12.175581
7149 665 6 0.417000 134.515325 21.494473 10.773749
7150 666 5 -0.834000 38.848518 38.546075 11.780291
7151 666 6 0.417000 38.922055 38.143746 10.914869
7152 666 6 0.417000 39.736474 38.513641 12.136259
7153 667 5 -0.834000 10.071556 1.502351 8.212312
7154 667 6 0.417000 10.475285 1.333439 7.361017
7155 667 6 0.417000 9.474337 0.766174 8.344992
7156 668 5 -0.834000 87.993763 38.627402 11.683191
7157 668 6 0.417000 88.754114 38.811284 11.131570
7158 668 6 0.417000 87.418136 39.381808 11.557668
7159 669 5 -0.834000 79.318102 7.192820 8.343308
7160 669 6 0.417000 79.226335 7.563988 7.465786
7161 669 6 0.417000 80.174288 6.764917 8.334558
7162 670 5 -0.834000 88.037205 15.779985 11.760002
7163 670 6 0.417000 88.175913 15.568619 10.836792
7164 670 6 0.417000 87.797184 16.706604 11.760616
7165 671 5 -0.834000 139.994152 12.909272 8.162221
7166 671 6 0.417000 140.142273 13.152646 7.248404
7167 671 6 0.417000 140.266766 11.993165 8.213806
7168 672 5 -0.834000 79.341549 21.411088 8.206217
7169 672 6 0.417000 79.883546 20.728542 7.810489
7170 672 6 0.417000 79.202002 21.115271 9.105801
7171 673 5 -0.834000 139.873242 24.309021 8.303406
7172 673 6 0.417000 139.268201 23.949620 8.952242
7173 673 6 0.417000 139.823771 23.700520 7.566174
7174 674 5 -0.834000 1.347320 35.665471 11.698227
7175 674 6 0.417000 2.274838 35.466227 11.825677
7176 674 6 0.417000 1.343602 36.454025 11.155640
7177 675 5 -0.834000 93.713755 7.197389 11.653131
7178 675 6 0.417000 93.051891 7.108237 10.967405
7179 675 6 0.417000 93.944856 8.126230 11.644309
7180 676 5 -0.834000 33.104288 35.740556 11.690179
7181 676 6 0.417000 33.323306 34.824493 11.860739
7182 676 6 0.417000 33.014197 35.792618 10.738651
7183 677 5 -0.834000 33.268263 21.371973 8.329685
7184 677 6 0.417000 34.134044 21.030790 8.553848
7185 677 6 0.417000 32.667566 20.899736 8.906216
7186 678 5 -0.834000 7.151853 12.796154 8.241420
7187 678 6 0.417000 7.333604 12.466789 7.361240
7188 678 6 0.417000 7.274657 13.743007 8.173452
7189 679 5 -0.834000 10.053146 35.786672 8.285395
7190 679 6 0.417000 10.974975 35.874097 8.042868
7191 679 6 0.417000 10.041622 35.912681 9.234194
7192 680 5 -0.834000 4.259207 4.296977 8.272020
7193 680 6 0.417000 5.027134 3.808792 7.975042
7194 680 6 0.417000 3.927595 4.725809 7.483117
7195 681 5 -0.834000 24.551425 27.083034 11.755268
7196 681 6 0.417000 24.017004 26.294874 11.658159
7197 681 6 0.417000 25.320954 26.919900 11.209883
7198 682 5 -0.834000 125.414680 21.477424 11.746385
7199 682 6 0.417000 125.062565 22.289456 11.381898
7200 682 6 0.417000 125.571357 20.920263 10.983984
7201 683 5 -0.834000 44.644254 18.488160 11.793590
7202 683 6 0.417000 45.414979 17.951744 11.607921
7203 683 6 0.417000 43.912848 17.870878 11.778092
7204 684 5 -0.834000 122.683236 27.069989 11.777925
7205 684 6 0.417000 122.738372 26.329918 12.382481
7206 684 6 0.417000 122.762457 27.842942 12.336942
7207 685 5 -0.834000 70.739957 7.162304 8.237307
7208 685 6 0.417000 70.252468 6.613724 8.851836
7209 685 6 0.417000 70.090943 7.427995 7.585831
7210 686 5 -0.834000 137.100492 35.669136 8.337644
7211 686 6 0.417000 136.629330 36.094732 9.053958
7212 686 6 0.417000 136.745637 34.780527 8.311508
7213 687 5 -0.834000 90.874708 30.089745 8.264656
7214 687 6 0.417000 91.336488 30.899791 8.048285
7215 687 6 0.417000 91.258874 29.432250 7.684700
7216 688 5 -0.834000 15.904186 27.065327 11.757973
7217 688 6 0.417000 16.478788 26.838297 11.026863
7218 688 6 0.417000 15.264485 27.669835 11.381697
7219 689 5 -0.834000 148.548309 4.311153 11.688599
7220 689 6 0.417000 148.484283 5.167748 11.266252
7221 689 6 0.417000 147.884962 3.777613 11.250949
7222 690 5 -0.834000 47.676402 7.167590 11.732865
7223 690 6 0.417000 48.376080 6.622667 12.093062
7224 690 6 0.417000 46.881067 6.851106 12.161250
7225 691 5 -0.834000 44.676207 1.379007 11.847879
7226 691 6 0.417000 44.887694 1.204040 10.930878
7227 691 6 0.417000 45.455474 1.812895 12.195321
7228 692 5 -0.834000 33.254175 12.929607 8.229744
7229 692 6 0.417000 33.862046 13.513044 8.683975
7230 692 6 0.417000 33.205246 12.152943 8.787085
7231 693 5 -0.834000 15.936576 21.422760 11.816457
7232 693 6 0.417000 16.335774 21.104930 12.626308
7233 693 6 0.417000 15.071417 21.734793 12.081724
7234 694 5 -0.834000 111.127353 24.370643 11.697615
7235 694 6 0.417000 111.481293 24.083707 12.539414
7236 694 6 0.417000 111.136424 25.326538 11.746741
7237 695 5 -0.834000 53.281842 24.327793 8.195306
7238 695 6 0.417000 53.318610 24.793466 9.030787
7239 695 6 0.417000 52.558614 23.709066 8.297044
7240 696 5 -0.834000 67.872546 21.474838 8.197525
7241 696 6 0.417000 67.211619 20.791319 8.087031
7242 696 6 0.417000 67.418570 22.286510 7.970972
7243 697 5 -0.834000 90.923487 9.999637 11.761976
7244 697 6 0.417000 90.328128 9.902516 12.505176
7245 697 6 0.417000 91.238221 9.112352 11.589061
7246 698 5 -0.834000 85.114939 12.950741 11.769218
7247 698 6 0.417000 84.258901 13.030446 11.348413
7248 698 6 0.417000 84.948229 12.431550 12.555908
7249 699 5 -0.834000 108.227369 4.287134 8.247371
7250 699 6 0.417000 108.679207 3.675443 7.666073
7251 699 6 0.417000 107.775181 3.728155 8.879273
7252 700 5 -0.834000 73.623874 18.609096 11.762602
7253 700 6 0.417000 73.551649 19.469395 11.349202
7254 700 6 0.417000 74.504678 18.308507 11.538857
7255 701 5 -0.834000 148.646267 38.617682 11.831418
7256 701 6 0.417000 147.864292 38.158408 12.137709
7257 701 6 0.417000 149.080398 37.991972 11.251548
7258 702 5 -0.834000 33.197858 27.083372 11.709220
7259 702 6 0.417000 34.122949 26.984974 11.934514
7260 702 6 0.417000 33.056795 28.029734 11.682150
7261 703 5 -0.834000 62.052602 32.942282 8.291851
7262 703 6 0.417000 61.131904 33.169491 8.161757
7263 703 6 0.417000 62.049418 31.994333 8.424565
7264 704 5 -0.834000 41.843800 24.310971 11.710586
7265 704 6 0.417000 41.425452 24.903961 12.334749
7266 704 6 0.417000 42.371235 23.724673 12.253080
7267 705 5 -0.834000 90.791670 15.627136 11.796829
7268 705 6 0.417000 90.547872 15.708603 10.874789
7269 705 6 0.417000 91.233504 16.451115 12.001944
7270 706 5 -0.834000 142.795368 4.329096 8.323161
7271 706 6 0.417000 142.276821 4.911680 7.768241
7272 706 6 0.417000 143.007510 4.856899 9.093000
7273 707 5 -0.834000 10.020870 21.390986 8.182819
7274 707 6 0.417000 9.679719 21.755730 7.366235
7275 707 6 0.417000 9.524216 20.582757 8.310612
7276 708 5 -0.834000 125.548380 7.156914 8.199841
7277 708 6 0.417000 124.912861 7.724444 7.763657
7278 708 6 0.417000 126.399878 7.475426 7.900285
7279 709 5 -0.834000 105.279613 15.755626 11.661521
7280 709 6 0.417000 104.664233 15.027938 11.751025
7281 709 6 0.417000 106.080182 15.352918 11.325148
7282 710 5 -0.834000 87.981478 1.489848 11.827082
7283 710 6 0.417000 87.068561 1.696103 11.626402
7284 710 6 0.417000 88.289844 2.238181 12.338100
7285 711 5 -0.834000 30.306480 30.004667 8.194892
7286 711 6 0.417000 30.257539 30.856621 7.761290
7287 711 6 0.417000 29.952452 30.160330 9.070486
7288 712 5 -0.834000 99.422903 24.244288 11.670662
7289 712 6 0.417000 98.487258 24.184786 11.863686
7290 712 6 0.417000 99.461955 24.520775 10.755095
7291 713 5 -0.834000 114.014046 24.190630 11.814799
7292 713 6 0.417000 113.892137 23.295600 12.131488
7293 713 6 0.417000 113.430641 24.259345 11.059055
7294 714 5 -0.834000 1.417620 12.848620 11.687214
7295 714 6 0.417000 0.815366 12.167520 11.986589
7296 714 6 0.417000 0.942182 13.299616 10.989507
7297 715 5 -0.834000 99.538649 29.925812 8.233562
7298 715 6 0.417000 100.346873 29.744674 7.753776
7299 715 6 0.417000 98.982702 29.165538 8.062862
7300 716 5 -0.834000 76.488141 15.622397 8.250234
7301 716 6 0.417000 77.160248 14.941555 8.219269
7302 716 6 0.417000 76.441646 15.954670 7.353760
7303 717 5 -0.834000 113.843306 29.948417 11.739395
7304 717 6 0.417000 113.179896 30.566194 12.046755
7305 717 6 0.417000 114.529746 30.500231 11.364518
7306 718 5 -0.834000 15.781913 30.061498 8.273626
7307 718 6 0.417000 15.280224 30.740386 8.724903
7308 718 6 0.417000 15.130372 29.581390 7.762526
7309 719 5 -0.834000 27.473004 24.326282 11.706651
7310 719 6 0.417000 27.442183 23.405459 11.447101
7311 719 6 0.417000 26.697720 24.447173 12.254877
7312 720 5 -0.834000 116.924163 35.662649 8.180930
7313 720 6 0.417000 116.002495 35.485473 7.992865
7314 720 6 0.417000 117.353197 34.810585 8.102519
7315 721 5 -0.834000 47.541507 21.388828 8.322196
7316 721 6 0.417000 48.267457 21.107530 7.765330
7317 721 6 0.417000 47.934463 22.014183 8.931088
7318 722 5 -0.834000 137.075830 7.128195 11.767197
7319 722 6 0.417000 137.282323 7.933467 12.241676
7320 722 6 0.417000 137.615961 7.169418 10.978027
7321 723 5 -0.834000 36.046787 1.444824 8.250205
7322 723 6 0.417000 35.962446 1.151436 9.157422
7323 723 6 0.417000 36.460136 2.305825 8.313865
7324 724 5 -0.834000 50.501931 24.307468 8.207779
7325 724 6 0.417000 50.513516 23.365228 8.375947
7326 724 6 0.417000 50.969997 24.689524 8.950194
7327 725 5 -0.834000 108.144400 9.945142 11.726415
7328 725 6 0.417000 107.278772 9.687641 12.043611
7329 725 6 0.417000 108.031875 10.052004 10.781877
7330 726 5 -0.834000 18.790580 12.917820 8.274063
7331 726 6 0.417000 18.603580 12.538786 9.132897
7332 726 6 0.417000 19.735189 13.072431 8.280500
7333 727 5 -0.834000 67.736754 1.350499 11.817102
7334 727 6 0.417000 68.330680 0.864847 11.244716
7335 727 6 0.417000 67.768751 0.880541 12.650377
7336 728 5 -0.834000 67.787857 24.335188 8.284892
7337 728 6 0.417000 67.310253 23.571258 8.608214
7338 728 6 0.417000 67.147945 24.812397 7.756672
7339 729 5 -0.834000 18.678307 21.337430 11.727875
7340 729 6 0.417000 19.222782 21.262858 10.944154
7341 729 6 0.417000 19.208366 21.846998 12.340745
7342 730 5 -0.834000 131.190524 24.362200 11.680876
7343 730 6 0.417000 130.338859 24.271661 11.253439
7344 730 6 0.417000 131.648715 23.546614 11.478116
7345 731 5 -0.834000 73.498419 7.074498 11.747965
7346 731 6 0.417000 73.782723 6.239305 11.376675
7347 731 6 0.417000 73.594725 7.701134 11.030829
7348 732 5 -0.834000 70.711718 18.594222 8.242486
7349 732 6 0.417000 70.416616 19.319585 8.792937
7350 732 6 0.417000 71.619805 18.808892 8.029115
7351 733 5 -0.834000 99.585265 27.070159 11.789188
7352 733 6 0.417000 100.118304 27.294519 12.551922
7353 733 6 0.417000 99.929957 26.226973 11.495151
7354 734 5 -0.834000 1.474675 21.352133 11.677773
7355 734 6 0.417000 0.622943 21.772283 11.558367
7356 734 6 0.417000 1.312219 20.425645 11.500406
7357 735 5 -0.834000 27.312738 21.344375 11.841160
7358 735 6 0.417000 27.982286 21.754628 12.388545
7359 735 6 0.417000 26.823910 22.078498 11.469214
7360 736 5 -0.834000 50.470884 18.516842 8.170779
7361 736 6 0.417000 50.260584 19.431353 8.359657
7362 736 6 0.417000 51.358846 18.400076 8.508597
7363 737 5 -0.834000 33.136396 9.945360 11.727967
7364 737 6 0.417000 33.547696 9.243545 12.232467
7365 737 6 0.417000 32.467046 9.504330 11.204808
7366 738 5 -0.834000 119.648598 32.803074 11.659247
7367 738 6 0.417000 118.869030 33.321166 11.859461
7368 738 6 0.417000 120.320074 33.141061 12.251798
7369 739 5 -0.834000 142.789772 15.706586 11.755151
7370 739 6 0.417000 142.784693 16.591873 12.119119
7371 739 6 0.417000 143.294639 15.782870 10.945507
7372 740 5 -0.834000 102.477764 18.608516 8.163538
7373 740 6 0.417000 103.096117 18.054191 8.639559
7374 740 6 0.417000 102.120978 19.196570 8.829216
7375 741 5 -0.834000 38.848631 27.122766 11.733336
7376 741 6 0.417000 38.163954 26.466560 11.863119
7377 741 6 0.417000 39.583859 26.632860 11.365012
7378 742 5 -0.834000 137.108719 4.269957 8.323249
7379 742 6 0.417000 136.731339 3.394703 8.235240
7380 742 6 0.417000 138.054368 4.129433 8.276001
7381 743 5 -0.834000 36.135445 27.209096 11.752318
7382 743 6 0.417000 35.467657 27.816480 11.433922
7383 743 6 0.417000 36.417909 26.732318 10.971851
7384 744 5 -0.834000 134.134928 27.204201 11.844046
7385 744 6 0.417000 133.788082 27.866371 11.246167
7386 744 6 0.417000 133.670676 26.401065 11.608090
7387 745 5 -0.834000 12.945421 38.565553 11.774063
7388 745 6 0.417000 11.993785 38.581727 11.672282
7389 745 6 0.417000 13.174056 39.457642 12.035092
7390 746 5 -0.834000 38.926027 9.937152 8.176282
7391 746 6 0.417000 39.457530 9.923951 7.380315
7392 746 6 0.417000 38.536125 9.064006 8.219008
7393 747 5 -0.834000 137.004149 27.147034 11.828154
7394 747 6 0.417000 137.109069 26.983000 12.765339
7395 747 6 0.417000 137.529961 27.929236 11.661083
7396 748 5 -0.834000 7.157211 4.310204 11.682479
7397 748 6 0.417000 7.435608 3.569048 11.144507
7398 748 6 0.417000 7.400730 5.082301 11.171796
7399 749 5 -0.834000 96.641581 21.493046 8.311203
7400 749 6 0.417000 96.745359 20.692152 8.825041
7401 749 6 0.417000 95.700788 21.668714 8.327957
7402 750 5 -0.834000 142.802985 7.191610 8.235657
7403 750 6 0.417000 143.045478 6.290327 8.448068
7404 750 6 0.417000 143.138116 7.709201 8.967790
7405 751 5 -0.834000 119.789286 10.027591 8.268621
7406 751 6 0.417000 120.198144 9.477004 7.600847
7407 751 6 0.417000 118.853953 9.837222 8.196908
7408 752 5 -0.834000 139.941831 21.390027 11.776381
7409 752 6 0.417000 140.490053 21.797996 12.446639
7410 752 6 0.417000 139.128579 21.894626 11.791699
7411 753 5 -0.834000 27.366371 12.932423 11.673094
7412 753 6 0.417000 28.204429 12.900733 11.211697
7413 753 6 0.417000 27.565453 13.366290 12.502767
7414 754 5 -0.834000 4.314292 27.154956 8.288987
7415 754 6 0.417000 4.643023 26.421193 8.808372
7416 754 6 0.417000 3.413109 26.913113 8.075418
7417 755 5 -0.834000 90.814614 27.043986 8.319259
7418 755 6 0.417000 91.556514 27.192183 8.905649
7419 755 6 0.417000 91.115396 26.361309 7.719496
7420 756 5 -0.834000 128.265620 4.238549 8.285225
7421 756 6 0.417000 128.325608 4.514022 7.370485
7422 756 6 0.417000 128.785156 3.435787 8.328672
7423 757 5 -0.834000 73.471331 35.629431 11.774083
7424 757 6 0.417000 74.357723 35.316720 11.593106
7425 757 6 0.417000 73.152917 35.949865 10.930183
7426 758 5 -0.834000 79.332624 35.629458 11.668312
7427 758 6 0.417000 78.532823 35.385916 11.202224
7428 758 6 0.417000 80.042180 35.343805 11.092843
7429 759 5 -0.834000 1.390198 24.194435 8.228967
7430 759 6 0.417000 0.663099 24.796511 8.387282
7431 759 6 0.417000 1.965143 24.308233 8.985750
7432 760 5 -0.834000 111.086141 18.651956 11.722115
7433 760 6 0.417000 110.880970 18.669578 12.656902
7434 760 6 0.417000 111.427756 17.771180 11.567958
7435 761 5 -0.834000 99.589176 1.340807 8.319107
7436 761 6 0.417000 100.221407 1.586497 8.994497
7437 761 6 0.417000 100.102772 1.302088 7.512291
7438 762 5 -0.834000 110.963967 35.767910 11.780437
7439 762 6 0.417000 110.063583 36.085236 11.710830
7440 762 6 0.417000 111.317779 36.216386 12.548498
7441 763 5 -0.834000 53.305638 32.798109 11.845825
7442 763 6 0.417000 52.742801 32.027429 11.919969
7443 763 6 0.417000 54.152106 32.450920 11.564431
7444 764 5 -0.834000 12.981444 32.907221 11.677820
7445 764 6 0.417000 12.121342 33.077123 11.293648
7446 764 6 0.417000 12.890436 32.054091 12.102223
7447 765 5 -0.834000 21.645338 38.578835 11.676290
7448 765 6 0.417000 22.004598 37.712502 11.867683
7449 765 6 0.417000 21.574135 38.603656 10.722064
7450 766 5 -0.834000 113.936563 18.605776 8.210742
7451 766 6 0.417000 113.691697 17.962818 8.876233
7452 766 6 0.417000 113.550053 18.272205 7.401068
7453 767 5 -0.834000 21.719284 1.486065 11.810120
7454 767 6 0.417000 22.420801 0.868662 11.602952
7455 767 6 0.417000 21.034041 0.946978 12.205163
7456 768 5 -0.834000 4.255659 21.447487 8.262795
7457 768 6 0.417000 5.124956 21.490545 7.864424
7458 768 6 0.417000 3.709899 22.005619 7.708840
7459 769 5 -0.834000 73.590782 4.383907 8.227476
7460 769 6 0.417000 72.909623 3.822584 8.597842
7461 769 6 0.417000 73.752679 5.042425 8.903032
7462 770 5 -0.834000 73.513367 27.101425 11.650767
7463 770 6 0.417000 74.086755 26.823197 10.936592
7464 770 6 0.417000 73.381324 28.037675 11.501662
7465 771 5 -0.834000 108.185815 35.616381 8.261193
7466 771 6 0.417000 107.791068 34.761936 8.435348
7467 771 6 0.417000 108.631586 35.508053 7.421083
7468 772 5 -0.834000 96.578446 21.517146 11.819191
7469 772 6 0.417000 96.540887 21.915963 12.688539
7470 772 6 0.417000 95.771796 21.005891 11.754643
7471 773 5 -0.834000 50.554648 38.478244 11.768131
7472 773 6 0.417000 51.402015 38.140641 11.477915
7473 773 6 0.417000 50.493191 39.346589 11.370096
7474 774 5 -0.834000 113.950842 38.569339 11.798053
7475 774 6 0.417000 113.522280 37.904454 12.337028
7476 774 6 0.417000 113.486382 39.380709 12.003447
7477 775 5 -0.834000 62.002334 35.794323 8.226898
7478 775 6 0.417000 62.081812 34.892376 8.537394
7479 775 6 0.417000 62.413956 36.321112 8.911946
7480 776 5 -0.834000 50.433767 27.069681 8.256524
7481 776 6 0.417000 49.488671 26.918478 8.243795
7482 776 6 0.417000 50.679992 27.127624 7.333352
7483 777 5 -0.834000 24.451333 35.800921 8.263712
7484 777 6 0.417000 23.827162 35.271343 8.759889
7485 777 6 0.417000 25.217535 35.236288 8.161950
7486 778 5 -0.834000 33.184527 18.625614 8.274672
7487 778 6 0.417000 32.899983 19.037842 7.458991
7488 778 6 0.417000 33.430777 19.357516 8.840281
7489 779 5 -0.834000 96.548136 30.011794 11.797511
7490 779 6 0.417000 96.279413 30.742471 11.240617
7491 779 6 0.417000 97.202646 29.543294 11.279480
7492 780 5 -0.834000 139.825175 24.339903 11.705295
7493 780 6 0.417000 138.985019 24.238235 11.258044
7494 780 6 0.417000 140.008145 23.474809 12.071855
7495 781 5 -0.834000 105.380000 7.069777 8.157320
7496 781 6 0.417000 105.457646 7.931963 8.565778
7497 781 6 0.417000 106.217042 6.939030 7.711789
7498 782 5 -0.834000 30.238262 38.588869 11.676117
7499 782 6 0.417000 30.308902 37.637595 11.755610
7500 782 6 0.417000 29.922278 38.732340 10.784039
7501 783 5 -0.834000 61.976454 1.423699 11.813476
7502 783 6 0.417000 62.485960 0.717661 11.415799
7503 783 6 0.417000 62.627697 1.973892 12.248679
7504 784 5 -0.834000 148.622658 30.093020 11.789402
7505 784 6 0.417000 147.673447 29.969610 11.788967
7506 784 6 0.417000 148.816103 30.463502 12.650538
7507 785 5 -0.834000 70.676556 27.121219 8.224749
7508 785 6 0.417000 70.281736 26.415818 7.712149
7509 785 6 0.417000 71.408017 27.427167 7.688473
7510 786 5 -0.834000 44.632729 4.355030 11.693670
7511 786 6 0.417000 45.067703 3.741016 12.285292
7512 786 6 0.417000 44.806235 4.008678 10.818360
7513 787 5 -0.834000 102.425083 15.684856 11.801074
7514 787 6 0.417000 101.886398 15.039895 12.259413
7515 787 6 0.417000 103.273536 15.255234 11.692516
7516 788 5 -0.834000 30.286426 1.501067 11.805622
7517 788 6 0.417000 29.956394 1.854461 10.979532
7518 788 6 0.417000 29.712020 0.759390 11.995896
7519 789 5 -0.834000 50.494763 12.908520 11.722698
7520 789 6 0.417000 50.353437 12.165901 11.135522
7521 789 6 0.417000 51.076295 13.492307 11.235619
7522 790 5 -0.834000 128.329230 7.087331 11.713956
7523 790 6 0.417000 128.372725 6.391883 12.370228
7524 790 6 0.417000 129.103737 7.624248 11.881561
7525 791 5 -0.834000 122.685311 24.275416 8.161289
7526 791 6 0.417000 122.468523 25.167625 8.431840
7527 791 6 0.417000 122.980714 23.846231 8.964264
7528 792 5 -0.834000 108.141603 7.240168 11.743314
7529 792 6 0.417000 108.180933 6.551265 12.406713
7530 792 6 0.417000 107.238679 7.555955 11.778500
7531 793 5 -0.834000 24.539232 27.086924 8.195043
7532 793 6 0.417000 24.792401 27.590841 7.421607
7533 793 6 0.417000 23.586501 27.017016 8.134645
7534 794 5 -0.834000 137.077442 35.618744 11.777568
7535 794 6 0.417000 136.173542 35.376123 11.978397
7536 794 6 0.417000 137.140967 35.540939 10.825653
7537 795 5 -0.834000 10.189962 24.294121 11.701418
7538 795 6 0.417000 10.589881 24.943220 11.122654
7539 795 6 0.417000 9.838739 23.628872 11.109540
7540 796 5 -0.834000 131.282958 7.055423 8.163923
7541 796 6 0.417000 130.563713 7.365445 7.613647
7542 796 6 0.417000 131.131002 6.114268 8.249754
7543 797 5 -0.834000 7.215197 4.231099 8.269406
7544 797 6 0.417000 7.136117 5.150964 8.016767
7545 797 6 0.417000 7.691117 4.250319 9.099685
7546 798 5 -0.834000 44.615707 29.935917 11.662724
7547 798 6 0.417000 45.405518 30.396236 11.378931
7548 798 6 0.417000 44.123862 29.783337 10.855854
7549 799 5 -0.834000 27.453359 7.201777 11.788520
7550 799 6 0.417000 27.999856 7.984311 11.716321
7551 799 6 0.417000 27.206092 7.166160 12.712545
7552 800 5 -0.834000 145.723926 38.642795 11.665326
7553 800 6 0.417000 146.409041 39.051667 11.136484
7554 800 6 0.417000 145.001528 39.270579 11.649203
7555 801 5 -0.834000 93.839063 1.341995 8.263377
7556 801 6 0.417000 94.779721 1.377192 8.089724
7557 801 6 0.417000 93.744927 1.695449 9.147934
7558 802 5 -0.834000 148.602433 38.584189 8.250160
7559 802 6 0.417000 147.858481 39.176481 8.140815
7560 802 6 0.417000 148.679177 38.467563 9.197124
7561 803 5 -0.834000 15.777393 18.493252 8.262738
7562 803 6 0.417000 15.270900 17.957550 8.873246
7563 803 6 0.417000 16.690485 18.289737 8.465414
7564 804 5 -0.834000 56.305783 27.220679 8.317021
7565 804 6 0.417000 56.149539 27.037564 9.243459
7566 804 6 0.417000 56.589797 26.382902 7.951373
7567 805 5 -0.834000 111.129151 18.523447 8.166525
7568 805 6 0.417000 111.522472 19.391505 8.256000
7569 805 6 0.417000 110.628620 18.569573 7.351926
7570 806 5 -0.834000 96.607647 18.569489 11.693032
7571 806 6 0.417000 96.530899 17.755756 12.191210
7572 806 6 0.417000 96.759752 18.285599 10.791643
7573 807 5 -0.834000 87.928899 35.687735 11.831605
7574 807 6 0.417000 88.150824 34.771920 11.663489
7575 807 6 0.417000 87.495624 35.676905 12.685061
7576 808 5 -0.834000 111.073108 4.232771 8.328451
7577 808 6 0.417000 112.022254 4.356579 8.323382
7578 808 6 0.417000 110.727046 5.012579 7.894432
7579 809 5 -0.834000 111.025657 29.984723 8.298385
7580 809 6 0.417000 110.396052 29.407128 8.729908
7581 809 6 0.417000 111.859350 29.795267 8.728843
7582 810 5 -0.834000 15.938359 32.796230 8.175192
7583 810 6 0.417000 16.587826 32.910095 8.869065
7584 810 6 0.417000 15.115025 33.087549 8.566964
7585 811 5 -0.834000 30.335237 29.916816 11.736372
7586 811 6 0.417000 29.521287 29.487990 12.000616
7587 811 6 0.417000 30.178050 30.194828 10.834023
7588 812 5 -0.834000 38.930623 35.710324 8.316244
7589 812 6 0.417000 39.626033 35.372931 8.880870
7590 812 6 0.417000 39.144407 35.374838 7.445625
7591 813 5 -0.834000 4.357646 12.788588 11.831005
7592 813 6 0.417000 3.806497 13.295562 12.427197
7593 813 6 0.417000 5.192618 12.702253 12.291005
7594 814 5 -0.834000 18.786091 15.738162 11.838586
7595 814 6 0.417000 18.355211 16.070667 12.625996
7596 814 6 0.417000 19.437993 15.118126 12.165405
7597 815 5 -0.834000 44.696477 27.089739 11.786415
7598 815 6 0.417000 43.989244 26.649698 11.314804
7599 815 6 0.417000 44.311829 27.915769 12.079589
7600 816 5 -0.834000 79.283907 38.556482 8.341750
7601 816 6 0.417000 79.627802 39.157670 7.681038
7602 816 6 0.417000 80.038957 38.346439 8.891307
7603 817 5 -0.834000 33.100017 12.946102 11.699645
7604 817 6 0.417000 32.478135 13.428455 11.154823
7605 817 6 0.417000 32.662322 12.115345 11.885379
7606 818 5 -0.834000 82.209117 18.489233 8.288856
7607 818 6 0.417000 81.932022 19.405302 8.305240
7608 818 6 0.417000 83.132869 18.522336 8.040223
7609 819 5 -0.834000 108.161233 30.008789 8.222116
7610 819 6 0.417000 109.106601 30.067643 8.084103
7611 819 6 0.417000 107.903681 29.200972 7.777896
7612 820 5 -0.834000 102.341862 4.274444 11.812749
7613 820 6 0.417000 102.038489 3.381904 11.646711
7614 820 6 0.417000 102.689328 4.247867 12.704261
7615 821 5 -0.834000 96.683929 32.916783 8.301671
7616 821 6 0.417000 95.851264 33.258394 8.627556
7617 821 6 0.417000 97.330882 33.208501 8.943998
7618 822 5 -0.834000 76.367960 21.440842 11.654053
7619 822 6 0.417000 76.536771 21.879630 12.487840
7620 822 6 0.417000 77.016406 20.737707 11.617288
7621 823 5 -0.834000 90.922847 1.373079 8.331733
7622 823 6 0.417000 90.050759 1.291665 8.717823
7623 823 6 0.417000 91.485529 1.630577 9.062018
7624 824 5 -0.834000 30.338817 7.071046 8.314598
7625 824 6 0.417000 30.108458 6.944732 9.235039
7626 824 6 0.417000 30.795178 7.912218 8.294677
7627 825 5 -0.834000 10.095517 38.667198 8.342646
7628 825 6 0.417000 10.322904 38.013881 9.004238
7629 825 6 0.417000 9.428821 39.211277 8.761844
7630 826 5 -0.834000 21.649512 9.999403 8.280532
7631 826 6 0.417000 20.859531 10.182163 8.789219
7632 826 6 0.417000 22.233895 10.732662 8.473037
7633 827 5 -0.834000 85.108747 7.159336 11.802695
7634 827 6 0.417000 84.449658 7.807565 12.050957
7635 827 6 0.417000 84.608190 6.361645 11.631340
7636 828 5 -0.834000 1.476884 7.234829 8.276858
7637 828 6 0.417000 1.868716 8.062644 7.998607
7638 828 6 0.417000 1.252845 7.372728 9.197196
7639 829 5 -0.834000 44.618110 7.200326 8.234471
7640 829 6 0.417000 44.887763 7.448402 7.350176
7641 829 6 0.417000 45.003251 7.870070 8.799573
7642 830 5 -0.834000 99.583320 21.408419 11.681048
7643 830 6 0.417000 98.955413 21.878082 11.132066
7644 830 6 0.417000 99.092512 21.188764 12.472938
7645 831 5 -0.834000 79.403969 12.804546 11.849732
7646 831 6 0.417000 79.960215 12.586861 12.597687
7647 831 6 0.417000 78.935371 11.992952 11.654892
7648 832 5 -0.834000 136.946604 29.906388 11.819721
7649 832 6 0.417000 135.990765 29.956475 11.809991
7650 832 6 0.417000 137.235155 30.768408 11.519900
7651 833 5 -0.834000 114.013445 27.098138 11.808974
7652 833 6 0.417000 114.745076 27.698880 11.950601
7653 833 6 0.417000 113.593864 27.024663 12.666170
7654 834 5 -0.834000 59.054613 35.702187 8.314013
7655 834 6 0.417000 59.452658 36.230059 7.621811
7656 834 6 0.417000 58.308840 36.222131 8.613534
7657 835 5 -0.834000 139.836480 9.921428 11.825936
7658 835 6 0.417000 140.708056 9.912241 11.430331
7659 835 6 0.417000 139.262144 9.562355 11.149597
7660 836 5 -0.834000 4.397465 9.968059 11.672227
7661 836 6 0.417000 4.714920 9.227485 12.188952
7662 836 6 0.417000 3.740823 10.385664 12.229595
7663 837 5 -0.834000 44.738817 32.941404 11.733257
7664 837 6 0.417000 43.783148 32.984967 11.701154
7665 837 6 0.417000 45.001832 32.771561 10.828708
7666 838 5 -0.834000 131.334560 27.198746 8.268787
7667 838 6 0.417000 131.752756 26.511962 7.749487
7668 838 6 0.417000 130.859246 27.728047 7.628358
7669 839 5 -0.834000 93.704345 35.758655 11.819110
7670 839 6 0.417000 94.065321 34.887788 11.653222
7671 839 6 0.417000 94.259733 36.121171 12.509297
7672 840 5 -0.834000 82.141204 32.890850 11.738479
7673 840 6 0.417000 81.911012 32.431251 10.931006
7674 840 6 0.417000 82.888858 32.404874 12.086436
7675 841 5 -0.834000 139.956921 38.485863 8.294948
7676 841 6 0.417000 139.431019 38.187616 7.552850
7677 841 6 0.417000 140.125707 37.692773 8.803624
7678 842 5 -0.834000 76.504384 15.669218 11.670809
7679 842 6 0.417000 76.086918 16.530207 11.645244
7680 842 6 0.417000 75.869582 15.082416 11.259808
7681 843 5 -0.834000 10.067468 27.219753 8.292350
7682 843 6 0.417000 10.812888 27.393033 8.867289
7683 843 6 0.417000 10.439020 27.222628 7.410209
7684 844 5 -0.834000 53.447904 24.221704 11.729414
7685 844 6 0.417000 53.488714 25.169906 11.853823
7686 844 6 0.417000 54.161479 23.878189 12.267038
7687 845 5 -0.834000 30.377744 27.066896 11.715963
7688 845 6 0.417000 30.500861 26.285814 12.255393
7689 845 6 0.417000 30.785357 27.772284 12.218469
7690 846 5 -0.834000 93.795624 21.386552 8.319405
7691 846 6 0.417000 93.202518 21.173891 9.039983
7692 846 6 0.417000 93.366538 22.108766 7.860576
7693 847 5 -0.834000 21.722085 32.771349 8.193542
7694 847 6 0.417000 21.862828 32.702257 9.137814
7695 847 6 0.417000 21.020856 32.146468 8.009064
7696 848 5 -0.834000 44.718090 30.048023 8.213200
7697 848 6 0.417000 44.333557 29.185719 8.055727
7698 848 6 0.417000 44.725406 30.468212 7.353189
7699 849 5 -0.834000 102.369536 21.365871 11.820641
7700 849 6 0.417000 101.524670 21.275578 12.261415
7701 849 6 0.417000 102.959935 21.694741 12.498509
7702 850 5 -0.834000 47.676514 15.643699 8.242398
7703 850 6 0.417000 48.422701 15.068451 8.411297
7704 850 6 0.417000 48.069774 16.484021 8.006947
7705 851 5 -0.834000 7.151132 7.102028 11.723742
7706 851 6 0.417000 6.497239 7.245066 12.407991
7707 851 6 0.417000 7.982060 7.347062 12.130864
7708 852 5 -0.834000 108.199212 35.633422 11.835572
7709 852 6 0.417000 107.812244 36.498587 11.969648
7710 852 6 0.417000 109.087418 35.711211 12.183813
7711 853 5 -0.834000 105.343715 21.337349 11.653170
7712 853 6 0.417000 106.225418 21.126251 11.346136
7713 853 6 0.417000 104.761959 20.903039 11.029337
7714 854 5 -0.834000 53.399017 27.159367 8.248017
7715 854 6 0.417000 54.136025 27.667754 8.586535
7716 854 6 0.417000 53.072822 27.672608 7.508820
7717 855 5 -0.834000 27.433878 30.048299 11.794446
7718 855 6 0.417000 26.647764 30.218870 11.275638
7719 855 6 0.417000 27.630551 29.125073 11.635684
7720 856 5 -0.834000 18.837500 29.981673 8.232032
7721 856 6 0.417000 19.665256 30.329189 7.899942
7722 856 6 0.417000 18.772561 30.326402 9.122637
7723 857 5 -0.834000 15.807618 35.617777 8.327646
7724 857 6 0.417000 15.364605 34.826851 8.020389
7725 857 6 0.417000 15.834300 35.523378 9.279806
7726 858 5 -0.834000 12.942874 35.694871 11.792330
7727 858 6 0.417000 12.964401 36.064241 12.675128
7728 858 6 0.417000 12.238724 35.047089 11.820325
7729 859 5 -0.834000 99.474398 38.532418 8.266467
7730 859 6 0.417000 99.304770 39.058248 7.484827
7731 859 6 0.417000 99.856160 39.148349 8.891861
7732 860 5 -0.834000 105.328618 38.613499 11.732327
7733 860 6 0.417000 105.296006 39.429775 11.233467
7734 860 6 0.417000 106.189314 38.622385 12.151081
7735 861 5 -0.834000 99.533792 24.192134 8.313631
7736 861 6 0.417000 99.814160 24.996713 7.877421
7737 861 6 0.417000 100.281571 23.600521 8.229656
7738 862 5 -0.834000 33.131447 38.479336 8.216377
7739 862 6 0.417000 33.294196 39.166082 7.569752
7740 862 6 0.417000 32.514431 37.886758 7.786989
7741 863 5 -0.834000 128.295847 38.514668 11.834845
7742 863 6 0.417000 128.926305 38.493768 11.114903
7743 863 6 0.417000 128.834002 38.587640 12.623068
7744 864 5 -0.834000 64.944201 7.129184 11.777366
7745 864 6 0.417000 65.437702 7.944430 11.687573
7746 864 6 0.417000 64.240052 7.341150 12.390127
7747 865 5 -0.834000 41.843905 4.240031 11.751812
7748 865 6 0.417000 42.402729 4.987593 11.964177
7749 865 6 0.417000 41.381233 4.504483 10.956682
7750 866 5 -0.834000 105.247037 24.190565 11.841266
7751 866 6 0.417000 105.421638 24.880155 12.481744
7752 866 6 0.417000 106.069176 23.703877 11.782487
7753 867 5 -0.834000 47.601415 4.226610 11.758108
7754 867 6 0.417000 47.650268 3.434141 11.223470
7755 867 6 0.417000 48.054432 3.997031 12.569465
7756 868 5 -0.834000 10.128875 4.234394 11.735594
7757 868 6 0.417000 9.951688 5.079109 12.149470
7758 868 6 0.417000 9.460148 3.648457 12.090155
7759 869 5 -0.834000 119.627201 38.527295 8.244039
7760 869 6 0.417000 120.508827 38.799592 8.498640
7761 869 6 0.417000 119.414308 39.077655 7.490373
7762 870 5 -0.834000 88.062513 32.954717 11.715633
7763 870 6 0.417000 87.959379 33.657790 11.074319
7764 870 6 0.417000 88.388726 33.392837 12.501679
7765 871 5 -0.834000 15.826087 7.047916 11.650088
7766 871 6 0.417000 16.553637 7.021683 11.028627
7767 871 6 0.417000 15.425320 6.180935 11.587143
7768 872 5 -0.834000 67.808763 15.790346 8.248940
7769 872 6 0.417000 68.522730 16.322558 8.599984
7770 872 6 0.417000 67.541677 16.244233 7.449639
7771 873 5 -0.834000 53.392655 9.989024 8.183360
7772 873 6 0.417000 53.292586 9.288403 7.538886
7773 873 6 0.417000 52.586460 10.499770 8.109737
7774 874 5 -0.834000 114.040054 15.809450 8.224201
7775 874 6 0.417000 113.196996 15.381374 8.373313
7776 874 6 0.417000 114.688128 15.179720 8.539908
7777 875 5 -0.834000 145.625846 1.458741 8.210290
7778 875 6 0.417000 146.266711 1.036718 8.782497
7779 875 6 0.417000 146.143625 2.053166 7.667339
7780 876 5 -0.834000 21.699082 4.237250 11.700363
7781 876 6 0.417000 22.345141 4.630236 12.287221
7782 876 6 0.417000 21.292532 4.982198 11.257642
7783 877 5 -0.834000 87.925737 7.065836 8.253973
7784 877 6 0.417000 88.091199 6.435780 8.955318
7785 877 6 0.417000 88.682524 6.983272 7.673724
7786 878 5 -0.834000 13.055535 7.109984 8.159215
7787 878 6 0.417000 13.867563 7.554340 8.402917
7788 878 6 0.417000 12.594726 6.980500 8.988142
7789 879 5 -0.834000 70.590666 24.297022 8.196666
7790 879 6 0.417000 71.187665 23.838617 8.788010
7791 879 6 0.417000 70.037238 24.822601 8.774348
7792 880 5 -0.834000 33.102341 29.926246 8.195638
7793 880 6 0.417000 32.494221 30.454013 8.713213
7794 880 6 0.417000 33.752179 29.619593 8.828020
7795 881 5 -0.834000 110.979053 24.379334 8.161206
7796 881 6 0.417000 111.885439 24.109914 8.012513
7797 881 6 0.417000 110.900056 24.440824 9.113157
7798 882 5 -0.834000 70.754385 30.050130 8.187700
7799 882 6 0.417000 70.442714 29.585420 7.411081
7800 882 6 0.417000 71.498015 29.531788 8.495221
7801 883 5 -0.834000 73.578110 12.824911 11.728215
7802 883 6 0.417000 74.532778 12.758215 11.748003
7803 883 6 0.417000 73.287329 12.335243 12.497568
7804 884 5 -0.834000 119.684287 4.336749 11.683634
7805 884 6 0.417000 119.112512 4.442105 12.444032
7806 884 6 0.417000 120.356550 3.719637 11.972541
7807 885 5 -0.834000 88.027404 7.083519 11.750988
7808 885 6 0.417000 88.233783 7.736826 11.082535
7809 885 6 0.417000 88.283888 6.249099 11.358314
7810 886 5 -0.834000 93.844593 10.001743 11.660507
7811 886 6 0.417000 94.774580 10.094944 11.867072
7812 886 6 0.417000 93.409933 9.984420 12.513151
7813 887 5 -0.834000 128.328295 1.442501 11.682643
7814 887 6 0.417000 128.828190 1.353751 12.494098
7815 887 6 0.417000 127.560000 0.886435 11.812040
7816 888 5 -0.834000 96.670332 32.904977 11.811296
7817 888 6 0.417000 96.719007 32.630431 10.895606
7818 888 6 0.417000 97.252013 33.663208 11.865747
7819 889 5 -0.834000 82.258334 38.482647 8.225574
7820 889 6 0.417000 81.753467 38.998191 8.854506
7821 889 6 0.417000 83.083937 38.298862 8.673721
7822 890 5 -0.834000 137.046338 32.920431 8.194587
7823 890 6 0.417000 137.185185 32.862476 7.249286
7824 890 6 0.417000 137.774995 32.429717 8.574706
7825 891 5 -0.834000 96.732710 7.174267 8.346150
7826 891 6 0.417000 96.933075 8.076030 8.596967
7827 891 6 0.417000 95.800680 7.072913 8.539231
7828 892 5 -0.834000 142.788618 27.218895 11.782326
7829 892 6 0.417000 142.566405 27.960893 12.344723
7830 892 6 0.417000 141.950006 26.932317 11.420614
7831 893 5 -0.834000 47.597236 30.032037 8.202632
7832 893 6 0.417000 46.886950 29.903722 8.831330
7833 893 6 0.417000 48.111079 29.226039 8.253273
7834 894 5 -0.834000 59.124909 32.933416 8.186692
7835 894 6 0.417000 59.776881 33.076255 8.872812
7836 894 6 0.417000 59.602194 33.074313 7.369025
7837 895 5 -0.834000 105.298726 15.635498 8.223535
7838 895 6 0.417000 104.620652 14.961700 8.272970
7839 895 6 0.417000 105.628105 15.710663 9.119130
7840 896 5 -0.834000 148.641576 12.949069 8.278970
7841 896 6 0.417000 148.802662 13.891600 8.322766
7842 896 6 0.417000 148.649664 12.661542 9.191929
7843 897 5 -0.834000 108.106383 18.571163 11.655604
7844 897 6 0.417000 108.363361 19.469960 11.449796
7845 897 6 0.417000 107.344043 18.406476 11.100674
7846 898 5 -0.834000 96.708294 27.160254 11.813894
7847 898 6 0.417000 96.567029 27.582801 12.661083
7848 898 6 0.417000 95.949092 26.588239 11.701450
7849 899 5 -0.834000 73.523421 30.056797 11.659565
7850 899 6 0.417000 73.771472 30.672908 10.970284
7851 899 6 0.417000 74.333231 29.901935 12.145835
7852 900 5 -0.834000 119.617907 35.745318 8.270705
7853 900 6 0.417000 119.028787 35.797082 7.518050
7854 900 6 0.417000 120.378743 35.262916 7.947210
7855 901 5 -0.834000 30.359040 15.744657 11.699303
7856 901 6 0.417000 31.243124 15.436218 11.500578
7857 901 6 0.417000 29.900081 14.967896 12.019040
7858 902 5 -0.834000 73.639945 15.777157 8.229385
7859 902 6 0.417000 74.269771 16.176956 8.829145
7860 902 6 0.417000 73.007984 15.340902 8.800821
7861 903 5 -0.834000 56.327201 30.062935 8.161760
7862 903 6 0.417000 56.433626 29.111720 8.151986
7863 903 6 0.417000 57.152049 30.400309 7.812422
7864 904 5 -0.834000 99.458504 12.882067 11.717390
7865 904 6 0.417000 99.156023 11.978740 11.623918
7866 904 6 0.417000 98.892427 13.386383 11.133050
7867 905 5 -0.834000 4.332770 35.687820 8.300060
7868 905 6 0.417000 5.035408 35.171999 7.904511
7869 905 6 0.417000 3.641669 35.051356 8.483158
7870 906 5 -0.834000 88.047234 21.460263 8.231213
7871 906 6 0.417000 87.772805 21.838547 7.395855
7872 906 6 0.417000 88.015597 22.191712 8.847826
7873 907 5 -0.834000 67.880241 18.497912 8.180962
7874 907 6 0.417000 68.778019 18.829616 8.195062
7875 907 6 0.417000 67.801223 17.985054 8.985303
7876 908 5 -0.834000 142.704827 30.065810 8.178669
7877 908 6 0.417000 142.344746 29.996082 9.062813
7878 908 6 0.417000 141.976026 30.386349 7.647316
7879 909 5 -0.834000 128.423443 30.042995 11.788567
7880 909 6 0.417000 128.719013 29.760298 12.653988
7881 909 6 0.417000 128.030331 30.902813 11.938258
7882 910 5 -0.834000 24.495023 38.537114 8.302468
7883 910 6 0.417000 23.835894 39.231177 8.294949
7884 910 6 0.417000 24.025889 37.764019 8.616265
7885 911 5 -0.834000 93.696335 12.842311 8.208353
7886 911 6 0.417000 94.398487 13.465646 8.394547
7887 911 6 0.417000 93.910716 12.490364 7.344404
7888 912 5 -0.834000 53.332814 1.499612 8.243836
7889 912 6 0.417000 53.890376 1.184323 8.955137
7890 912 6 0.417000 52.994225 0.703834 7.833558
7891 913 5 -0.834000 122.597990 38.617605 11.660927
7892 913 6 0.417000 122.981026 38.032222 11.007596
7893 913 6 0.417000 123.198598 38.572703 12.404893
7894 914 5 -0.834000 61.973053 38.638833 8.236348
7895 914 6 0.417000 62.702605 38.087040 8.518323
7896 914 6 0.417000 61.207657 38.267305 8.674946
7897 915 5 -0.834000 47.535563 21.340640 11.743011
7898 915 6 0.417000 48.075322 21.995853 11.300760
7899 915 6 0.417000 48.053476 20.536633 11.703370
7900 916 5 -0.834000 53.286289 12.895736 8.240563
7901 916 6 0.417000 53.565365 13.504253 8.924708
7902 916 6 0.417000 53.098290 13.453287 7.485564
7903 917 5 -0.834000 64.920877 32.933329 11.675727
7904 917 6 0.417000 64.187121 33.407794 12.066519
7905 917 6 0.417000 65.645039 33.559169 11.687762
7906 918 5 -0.834000 24.566435 21.421784 8.162677
7907 918 6 0.417000 23.903010 20.732415 8.133190
7908 918 6 0.417000 24.459374 21.821116 9.025986
7909 919 5 -0.834000 96.679358 38.538963 11.805920
7910 919 6 0.417000 97.111984 39.227751 11.301305
7911 919 6 0.417000 97.217568 37.760878 11.660510
7912 920 5 -0.834000 116.917078 15.618557 8.156709
7913 920 6 0.417000 117.745230 15.531795 7.684619
7914 920 6 0.417000 116.580501 16.475667 7.895350
7915 921 5 -0.834000 90.881672 4.308515 11.746573
7916 921 6 0.417000 91.210856 3.779127 11.020200
7917 921 6 0.417000 91.338461 5.145227 11.660030
7918 922 5 -0.834000 82.278620 30.038466 11.779613
7919 922 6 0.417000 83.161615 30.037072 12.149139
7920 922 6 0.417000 82.333565 30.629776 11.028903
7921 923 5 -0.834000 47.580241 7.195170 8.293710
7922 923 6 0.417000 47.533910 6.711225 7.469160
7923 923 6 0.417000 47.611278 6.517052 8.968561
7924 924 5 -0.834000 67.717142 24.224922 11.776683
7925 924 6 0.417000 66.892002 24.332876 11.303690
7926 924 6 0.417000 67.976567 23.320018 11.603246
7927 925 5 -0.834000 85.150255 38.648861 11.700208
7928 925 6 0.417000 84.910892 39.569941 11.597498
7929 925 6 0.417000 84.596796 38.185530 11.071528
7930 926 5 -0.834000 15.905708 35.698924 11.713938
7931 926 6 0.417000 15.979954 36.632679 11.910967
7932 926 6 0.417000 15.356359 35.661807 10.930951
7933 927 5 -0.834000 102.375279 12.916197 8.240579
7934 927 6 0.417000 102.550947 12.830900 9.177647
7935 927 6 0.417000 103.220865 13.150851 7.858277
7936 928 5 -0.834000 18.800467 24.188914 11.782686
7937 928 6 0.417000 19.647149 23.833582 12.053055
7938 928 6 0.417000 18.844813 24.213765 10.826836
7939 929 5 -0.834000 125.562164 18.671115 11.797642
7940 929 6 0.417000 125.459239 18.269691 10.934800
7941 929 6 0.417000 126.455419 19.015102 11.797287
7942 930 5 -0.834000 93.839749 4.298983 11.775435
7943 930 6 0.417000 94.460039 4.497802 11.074048
7944 930 6 0.417000 93.734052 3.348298 11.739990
7945 931 5 -0.834000 105.371276 4.337965 8.340605
7946 931 6 0.417000 105.867258 5.153263 8.414925
7947 931 6 0.417000 104.921353 4.406676 7.498536
7948 932 5 -0.834000 96.655986 10.097814 11.657877
7949 932 6 0.417000 96.642699 10.290291 12.595431
7950 932 6 0.417000 97.462522 10.504289 11.340844
7951 933 5 -0.834000 96.647146 38.542693 8.160719
7952 933 6 0.417000 96.347209 38.809217 7.291677
7953 933 6 0.417000 95.942364 38.810540 8.750441
7954 934 5 -0.834000 131.192627 35.737858 11.656338
7955 934 6 0.417000 131.891428 35.112745 11.463613
7956 934 6 0.417000 131.255335 35.884451 12.600165
7957 935 5 -0.834000 41.825439 24.248119 8.273074
7958 935 6 0.417000 42.146446 25.004084 7.781441
7959 935 6 0.417000 42.604123 23.891665 8.700653
7960 936 5 -0.834000 82.161481 12.796487 11.699193
7961 936 6 0.417000 81.813059 13.626681 11.374212
7962 936 6 0.417000 82.555056 13.015580 12.543781
7963 937 5 -0.834000 24.600523 9.935940 11.743909
7964 937 6 0.417000 23.951100 9.541076 12.325771
7965 937 6 0.417000 24.586043 10.867167 11.964904
7966 938 5 -0.834000 67.720178 10.037745 11.836231
7967 938 6 0.417000 68.237631 10.775113 12.159904
7968 938 6 0.417000 67.745208 10.126846 10.883516
7969 939 5 -0.834000 1.375807 7.109600 11.699606
7970 939 6 0.417000 1.008103 7.570821 12.453463
7971 939 6 0.417000 0.721477 7.217962 11.009430
7972 940 5 -0.834000 56.258078 38.484708 11.808820
7973 940 6 0.417000 55.409977 38.040931 11.813054
7974 940 6 0.417000 56.462996 38.619557 12.734053
7975 941 5 -0.834000 119.772845 24.313063 11.757378
7976 941 6 0.417000 120.715395 24.155370 11.811811
7977 941 6 0.417000 119.654645 25.189615 12.123324
7978 942 5 -0.834000 7.148497 21.403361 11.769191
7979 942 6 0.417000 7.240116 21.890846 12.587846
7980 942 6 0.417000 8.044892 21.300140 11.449736
7981 943 5 -0.834000 59.154395 21.388185 8.259180
7982 943 6 0.417000 58.848742 20.517029 8.511958
7983 943 6 0.417000 59.132660 21.895029 9.070887
7984 944 5 -0.834000 139.901970 30.099521 8.297996
7985 944 6 0.417000 138.978970 30.252198 8.500462
7986 944 6 0.417000 140.302454 30.968164 8.334097
7987 945 5 -0.834000 61.980182 35.648944 11.695365
7988 945 6 0.417000 62.527539 34.912101 11.966835
7989 945 6 0.417000 62.476874 36.425103 11.954413
7990 946 5 -0.834000 27.468592 32.944097 11.692058
7991 946 6 0.417000 27.884583 33.371090 12.440965
7992 946 6 0.417000 27.577395 33.564404 10.971216
7993 947 5 -0.834000 90.861895 18.498520 11.775938
7994 947 6 0.417000 90.027194 18.077315 11.570774
7995 947 6 0.417000 90.777958 19.383333 11.420562
7996 948 5 -0.834000 125.424049 1.413204 8.219093
7997 948 6 0.417000 125.419815 2.152590 8.826977
7998 948 6 0.417000 125.996878 0.766695 8.631555
7999 949 5 -0.834000 56.301408 15.641124 8.252439
8000 949 6 0.417000 56.375714 16.538058 8.578354
8001 949 6 0.417000 56.810301 15.117847 8.871665
8002 950 5 -0.834000 38.979824 7.119818 11.718207
8003 950 6 0.417000 38.485198 7.718675 11.158791
8004 950 6 0.417000 39.481047 6.579582 11.107345
8005 951 5 -0.834000 41.730939 18.492859 8.183301
8006 951 6 0.417000 40.863876 18.226385 7.877646
8007 951 6 0.417000 42.328775 18.197203 7.496707
8008 952 5 -0.834000 99.451390 7.159478 8.270554
8009 952 6 0.417000 99.360969 7.210954 7.319026
8010 952 6 0.417000 99.697650 6.250034 8.439372
8011 953 5 -0.834000 128.353659 12.837611 11.843065
8012 953 6 0.417000 127.708649 13.479772 12.139416
8013 953 6 0.417000 129.197609 13.208934 12.100161
8014 954 5 -0.834000 113.983373 32.933261 11.761968
8015 954 6 0.417000 113.750182 32.007185 11.827073
8016 954 6 0.417000 113.143150 33.391072 11.736157
8017 955 5 -0.834000 36.040805 35.774482 8.271820
8018 955 6 0.417000 35.557266 35.134456 8.794111
8019 955 6 0.417000 36.961026 35.547850 8.406221
8020 956 5 -0.834000 35.962859 38.666672 8.241095
8021 956 6 0.417000 36.343796 38.503335 9.103904
8022 956 6 0.417000 35.099974 39.037437 8.426013
8023 957 5 -0.834000 59.156129 27.136243 8.257076
8024 957 6 0.417000 59.083287 27.891537 8.840562
8025 957 6 0.417000 59.768515 27.416602 7.576918
8026 958 5 -0.834000 64.878956 35.683393 11.811545
8027 958 6 0.417000 64.976910 35.790233 12.757707
8028 958 6 0.417000 64.237988 36.348324 11.560033
8029 959 5 -0.834000 53.411042 1.484433 11.705006
8030 959 6 0.417000 53.844133 0.682373 11.997178
8031 959 6 0.417000 52.802401 1.194641 11.025441
8032 960 5 -0.834000 7.259056 1.480299 8.348079
8033 960 6 0.417000 6.407462 1.093258 8.551104
8034 960 6 0.417000 7.895514 0.836081 8.658137
8035 961 5 -0.834000 85.151104 1.410757 8.251752
8036 961 6 0.417000 84.573300 2.155332 8.084471
8037 961 6 0.417000 84.579058 0.743504 8.630920
8038 962 5 -0.834000 70.637904 1.333836 11.684215
8039 962 6 0.417000 71.186466 1.638067 12.407233
8040 962 6 0.417000 71.013771 0.489000 11.436811
8041 963 5 -0.834000 38.967722 21.435001 11.717527
8042 963 6 0.417000 39.646570 20.760259 11.728524
8043 963 6 0.417000 38.943658 21.736439 10.809349
8044 964 5 -0.834000 93.771830 18.564521 11.725371
8045 964 6 0.417000 93.973630 19.379891 12.184371
8046 964 6 0.417000 93.801342 18.797812 10.797505
8047 965 5 -0.834000 128.363919 27.091863 8.242916
8048 965 6 0.417000 128.270420 26.477882 7.514550
8049 965 6 0.417000 127.465344 27.290157 8.506496
8050 966 5 -0.834000 93.757033 21.355867 11.706462
8051 966 6 0.417000 92.872616 21.626358 11.953189
8052 966 6 0.417000 93.636769 20.841507 10.908213
8053 967 5 -0.834000 21.710875 32.875441 11.718866
8054 967 6 0.417000 22.526370 33.074779 12.178719
8055 967 6 0.417000 21.853625 32.006923 11.342660
8056 968 5 -0.834000 85.001453 29.955030 11.672038
8057 968 6 0.417000 84.115036 30.172821 11.383828
8058 968 6 0.417000 85.410149 29.550823 10.906652
8059 969 5 -0.834000 21.723807 27.145062 8.159437
8060 969 6 0.417000 21.371684 28.034280 8.198581
8061 969 6 0.417000 22.366381 27.172389 7.450505
8062 970 5 -0.834000 41.841540 10.012980 11.730549
8063 970 6 0.417000 41.834198 10.068272 10.774975
8064 970 6 0.417000 42.543905 9.393914 11.929727
8065 971 5 -0.834000 73.578331 32.929361 8.185081
8066 971 6 0.417000 72.986140 33.679870 8.232820
8067 971 6 0.417000 74.334245 33.250988 7.693775
8068 972 5 -0.834000 90.791127 1.454436 11.760707
8069 972 6 0.417000 90.909095 2.026937 11.002711
8070 972 6 0.417000 90.888443 0.569053 11.410195
8071 973 5 -0.834000 111.115061 27.188273 8.324459
8072 973 6 0.417000 110.892208 26.357216 8.743879
8073 973 6 0.417000 111.909680 26.999650 7.825226
8074 974 5 -0.834000 114.022992 4.325659 8.224144
8075 974 6 0.417000 113.979481 4.862580 9.015380
8076 974 6 0.417000 114.932267 4.398851 7.934154
8077 975 5 -0.834000 15.826404 15.636489 8.177865
8078 975 6 0.417000 15.086194 16.186478 7.921286
8079 975 6 0.417000 16.358121 15.564634 7.385182
8080 976 5 -0.834000 148.635933 9.902183 8.302488
8081 976 6 0.417000 149.497368 10.008114 8.706148
8082 976 6 0.417000 148.786840 10.058648 7.370299
8083 977 5 -0.834000 134.151036 9.949955 8.162440
8084 977 6 0.417000 133.889715 10.772393 7.748266
8085 977 6 0.417000 134.820954 10.203299 8.797467
8086 978 5 -0.834000 122.588572 18.626105 11.709238
8087 978 6 0.417000 122.163303 17.768567 11.711802
8088 978 6 0.417000 123.106485 18.639548 12.514109
8089 979 5 -0.834000 59.042453 7.124274 11.806315
8090 979 6 0.417000 58.696738 7.358528 10.945016
8091 979 6 0.417000 59.394759 7.943391 12.154394
8092 980 5 -0.834000 85.104794 38.652912 8.233181
8093 980 6 0.417000 85.124837 38.666100 7.276282
8094 980 6 0.417000 84.536167 37.914412 8.451156
8095 981 5 -0.834000 41.819787 1.527066 8.290949
8096 981 6 0.417000 42.443225 2.245523 8.397611
8097 981 6 0.417000 42.126048 1.056684 7.515593
8098 982 5 -0.834000 21.589006 18.661298 8.201910
8099 982 6 0.417000 22.061547 19.223498 8.815804
8100 982 6 0.417000 21.897477 17.777088 8.400025
8101 983 5 -0.834000 113.844315 10.012001 11.708143
8102 983 6 0.417000 113.503288 10.180523 12.586512
8103 983 6 0.417000 113.257731 10.495183 11.126175
8104 984 5 -0.834000 125.476470 21.380060 8.280503
8105 984 6 0.417000 125.372049 21.183254 7.349591
8106 984 6 0.417000 126.355994 21.751304 8.350124
8107 985 5 -0.834000 116.826554 32.825986 11.765158
8108 985 6 0.417000 116.673495 31.881336 11.786181
8109 985 6 0.417000 117.769829 32.919292 11.898418
8110 986 5 -0.834000 82.239370 15.779297 11.761944
8111 986 6 0.417000 83.120855 16.095870 11.959422
8112 986 6 0.417000 82.367558 14.874579 11.476837
8113 987 5 -0.834000 15.779619 15.729485 11.660541
8114 987 6 0.417000 15.929975 15.883522 10.727858
8115 987 6 0.417000 16.634516 15.466116 12.001156
8116 988 5 -0.834000 105.280047 12.905218 11.688863
8117 988 6 0.417000 104.650283 13.593203 11.904053
8118 988 6 0.417000 104.765584 12.098061 11.696325
8119 989 5 -0.834000 70.640201 10.071722 11.695173
8120 989 6 0.417000 69.905451 10.675158 11.584537
8121 989 6 0.417000 70.230862 9.226908 11.882153
8122 990 5 -0.834000 119.640555 18.611997 8.253399
8123 990 6 0.417000 120.494548 18.601633 7.821172
8124 990 6 0.417000 119.707127 19.315060 8.899543
8125 991 5 -0.834000 76.415195 18.567209 8.223841
8126 991 6 0.417000 76.768127 18.475538 7.338816
8127 991 6 0.417000 77.065714 19.093867 8.688263
8128 992 5 -0.834000 4.273011 35.725785 11.653437
8129 992 6 0.417000 5.229064 35.744451 11.696402
8130 992 6 0.417000 3.988089 36.152256 12.461628
8131 993 5 -0.834000 134.144626 29.950543 11.680709
8132 993 6 0.417000 134.020362 30.243585 12.583437
8133 993 6 0.417000 134.976004 29.476360 11.694611
8134 994 5 -0.834000 13.005573 24.260103 11.700540
8135 994 6 0.417000 13.890417 24.588651 11.859723
8136 994 6 0.417000 12.631904 24.873733 11.068035
8137 995 5 -0.834000 142.846230 32.836197 11.670691
8138 995 6 0.417000 142.621064 33.502102 11.020996
8139 995 6 0.417000 143.722294 33.079454 11.969973
8140 996 5 -0.834000 90.793619 38.527522 8.241377
8141 996 6 0.417000 89.871008 38.463360 8.488167
8142 996 6 0.417000 90.983578 37.697121 7.804822
8143 997 5 -0.834000 7.252207 21.467951 8.210530
8144 997 6 0.417000 7.427027 21.328517 9.141243
8145 997 6 0.417000 8.094962 21.738215 7.845903
8146 998 5 -0.834000 128.317743 7.225066 8.234883
8147 998 6 0.417000 128.860104 6.513570 7.894516
8148 998 6 0.417000 128.735336 7.471435 9.060201
8149 999 5 -0.834000 64.869732 15.749440 8.184787
8150 999 6 0.417000 64.269465 16.478320 8.027797
8151 999 6 0.417000 65.138382 15.467212 7.310483
8152 1000 5 -0.834000 102.312677 38.491821 8.152347
8153 1000 6 0.417000 101.577788 38.397572 7.546303
8154 1000 6 0.417000 102.101022 37.905991 8.879146
8155 1001 5 -0.834000 15.891331 12.952600 8.228866
8156 1001 6 0.417000 16.002036 13.534014 7.476581
8157 1001 6 0.417000 14.989449 13.098637 8.514371
8158 1002 5 -0.834000 1.497428 30.011274 11.747079
8159 1002 6 0.417000 1.898366 30.510714 11.035714
8160 1002 6 0.417000 0.590635 30.316674 11.773335
8161 1003 5 -0.834000 18.811227 7.054030 11.695578
8162 1003 6 0.417000 19.324910 6.590198 12.356805
8163 1003 6 0.417000 19.418692 7.183851 10.967317
8164 1004 5 -0.834000 27.314548 27.046322 11.737996
8165 1004 6 0.417000 27.302186 26.846111 12.673942
8166 1004 6 0.417000 28.221755 26.895849 11.472354
8167 1005 5 -0.834000 116.839146 4.360694 11.684625
8168 1005 6 0.417000 117.166699 4.306059 10.786875
8169 1005 6 0.417000 116.890157 3.463298 12.013730
8170 1006 5 -0.834000 50.492044 35.718599 11.789702
8171 1006 6 0.417000 50.981914 35.216449 12.440936
8172 1006 6 0.417000 50.530774 35.184715 10.996166
8173 1007 5 -0.834000 93.825252 10.031404 8.230892
8174 1007 6 0.417000 94.129105 9.490445 7.502010
8175 1007 6 0.417000 94.182081 9.605952 9.010568
8176 1008 5 -0.834000 119.730503 21.491294 11.666768
8177 1008 6 0.417000 120.283744 22.078267 12.182149
8178 1008 6 0.417000 118.850587 21.859657 11.746068
8179 1009 5 -0.834000 24.545075 4.242769 11.757826
8180 1009 6 0.417000 23.645764 3.992261 11.969291
8181 1009 6 0.417000 24.984542 4.298388 12.606359
8182 1010 5 -0.834000 10.103068 18.600504 11.726009
8183 1010 6 0.417000 9.362030 19.044130 11.313346
8184 1010 6 0.417000 9.705753 18.035197 12.388429
8185 1011 5 -0.834000 47.535205 1.351270 8.222306
8186 1011 6 0.417000 48.338355 0.959009 8.564816
8187 1011 6 0.417000 47.331846 2.056759 8.836441
8188 1012 5 -0.834000 7.308067 18.660544 11.840277
8189 1012 6 0.417000 6.785490 17.891721 11.612118
8190 1012 6 0.417000 7.248035 18.717131 12.793916
8191 1013 5 -0.834000 128.389065 21.401344 11.787953
8192 1013 6 0.417000 127.723006 20.756977 11.548392
8193 1013 6 0.417000 129.188551 20.888074 11.904605
8194 1014 5 -0.834000 145.667927 24.199817 11.663963
8195 1014 6 0.417000 145.862966 24.787956 10.934386
8196 1014 6 0.417000 145.757644 23.321315 11.294616
8197 1015 5 -0.834000 38.882883 29.901523 11.748903
8198 1015 6 0.417000 38.120345 29.820477 11.176016
8199 1015 6 0.417000 39.031751 30.844524 11.818326
8200 1016 5 -0.834000 116.813457 15.796896 11.723429
8201 1016 6 0.417000 116.099293 15.498734 12.286724
8202 1016 6 0.417000 117.335663 16.372385 12.282307
8203 1017 5 -0.834000 53.307379 7.193814 8.195405
8204 1017 6 0.417000 53.369103 6.466187 8.814260
8205 1017 6 0.417000 53.499014 6.801352 7.343654
8206 1018 5 -0.834000 41.813412 21.470917 11.792250
8207 1018 6 0.417000 41.003539 21.501350 11.282927
8208 1018 6 0.417000 41.592664 20.948055 12.563041
8209 1019 5 -0.834000 119.630661 15.620496 11.674955
8210 1019 6 0.417000 120.208371 15.831679 12.408361
8211 1019 6 0.417000 118.894834 15.156937 12.074834
8212 1020 5 -0.834000 110.999599 10.070290 8.251810
8213 1020 6 0.417000 111.116440 9.875868 9.181745
8214 1020 6 0.417000 110.163468 10.534070 8.206804
8215 1021 5 -0.834000 131.315430 29.995703 8.263158
8216 1021 6 0.417000 130.648854 29.539021 7.749982
8217 1021 6 0.417000 130.820894 30.606472 8.809626
8218 1022 5 -0.834000 148.505655 29.993888 8.224757
8219 1022 6 0.417000 148.283687 29.505585 7.431963
8220 1022 6 0.417000 149.006321 30.746796 7.910599
8221 1023 5 -0.834000 4.413071 32.936421 11.727330
8222 1023 6 0.417000 5.046587 33.379994 11.163297
8223 1023 6 0.417000 4.907970 32.714685 12.516088
8224 1024 5 -0.834000 134.195213 32.803331 11.749551
8225 1024 6 0.417000 133.636902 33.574820 11.846123
8226 1024 6 0.417000 135.029741 33.060432 12.141591
8227 1025 5 -0.834000 50.566554 4.370610 11.705363
8228 1025 6 0.417000 49.706173 4.505322 12.102642
8229 1025 6 0.417000 50.684785 5.124524 11.127551
8230 1026 5 -0.834000 15.896620 9.942748 11.817482
8231 1026 6 0.417000 15.234091 10.627145 11.911759
8232 1026 6 0.417000 16.725812 10.417589 11.760926
8233 1027 5 -0.834000 76.468899 32.921551 8.331154
8234 1027 6 0.417000 76.094604 33.737958 8.000073
8235 1027 6 0.417000 75.794850 32.566044 8.910381
8236 1028 5 -0.834000 24.522540 4.193729 8.322916
8237 1028 6 0.417000 25.457303 4.292998 8.142373
8238 1028 6 0.417000 24.371998 4.722417 9.106534
8239 1029 5 -0.834000 142.883945 15.793264 8.222313
8240 1029 6 0.417000 143.717023 15.537528 8.618307
8241 1029 6 0.417000 142.226522 15.570472 8.881396
8242 1030 5 -0.834000 111.043089 35.775080 8.273385
8243 1030 6 0.417000 111.898202 35.552061 7.905586
8244 1030 6 0.417000 110.493384 35.015587 8.080445
8245 1031 5 -0.834000 18.769161 35.722099 11.689518
8246 1031 6 0.417000 19.068235 36.105479 10.865014
8247 1031 6 0.417000 17.865670 35.457082 11.517175
8248 1032 5 -0.834000 113.891192 32.906560 8.305184
8249 1032 6 0.417000 114.264400 33.710904 7.944660
8250 1032 6 0.417000 114.272105 32.206565 7.774954
8251 1033 5 -0.834000 90.833058 12.838463 11.803392
8252 1033 6 0.417000 91.634374 12.615858 11.329503
8253 1033 6 0.417000 90.229202 12.123321 11.602990
8254 1034 5 -0.834000 56.339265 32.874078 11.656639
8255 1034 6 0.417000 56.039296 33.710735 11.301316
8256 1034 6 0.417000 56.813692 33.108372 12.454297
8257 1035 5 -0.834000 128.408074 4.216575 11.766635
8258 1035 6 0.417000 127.912657 4.285324 12.582765
8259 1035 6 0.417000 128.785634 5.087151 11.641021
8260 1036 5 -0.834000 134.070556 4.210668 8.213090
8261 1036 6 0.417000 133.366093 4.609443 8.723914
8262 1036 6 0.417000 133.831725 3.285484 8.156275
8263 1037 5 -0.834000 122.691971 21.351583 11.811017
8264 1037 6 0.417000 121.824631 21.312108 12.214000
8265 1037 6 0.417000 122.773882 20.524466 11.336253
8266 1038 5 -0.834000 73.656277 1.511020 11.844074
8267 1038 6 0.417000 73.722075 2.462328 11.927232
8268 1038 6 0.417000 73.783153 1.342385 10.910427
8269 1039 5 -0.834000 12.900210 27.233181 8.323045
8270 1039 6 0.417000 12.216194 26.750752 8.787390
8271 1039 6 0.417000 12.826048 28.129597 8.650415
8272 1040 5 -0.834000 50.404748 30.059856 8.254518
8273 1040 6 0.417000 49.746953 29.533682 7.799900
8274 1040 6 0.417000 50.988604 30.366101 7.560574
8275 1041 5 -0.834000 10.055067 35.779475 11.789239
8276 1041 6 0.417000 10.813289 36.073645 11.284466
8277 1041 6 0.417000 9.425088 35.489937 11.129295
8278 1042 5 -0.834000 131.290686 1.501418 8.339346
8279 1042 6 0.417000 131.480285 0.563277 8.352560
8280 1042 6 0.417000 131.532296 1.782680 7.456878
8281 1043 5 -0.834000 108.216152 9.944227 8.270313
8282 1043 6 0.417000 108.863602 10.335705 8.856644
8283 1043 6 0.417000 108.004268 10.639954 7.647978
8284 1044 5 -0.834000 36.126841 35.659706 11.727388
8285 1044 6 0.417000 36.509413 34.804772 11.530006
8286 1044 6 0.417000 36.129895 36.123131 10.889856
8287 1045 5 -0.834000 61.919709 4.256923 8.152166
8288 1045 6 0.417000 61.800048 3.312075 8.247949
8289 1045 6 0.417000 62.039135 4.389589 7.211757
8290 1046 5 -0.834000 142.888123 9.985024 11.706043
8291 1046 6 0.417000 142.558102 10.249457 12.564759
8292 1046 6 0.417000 143.567449 9.338756 11.898622
8293 1047 5 -0.834000 67.780040 7.166522 8.235396
8294 1047 6 0.417000 68.383474 7.905325 8.156221
8295 1047 6 0.417000 68.189095 6.590718 8.881427
8296 1048 5 -0.834000 145.753509 24.354495 8.344367
8297 1048 6 0.417000 145.480874 24.995740 7.688085
8298 1048 6 0.417000 146.587694 24.688511 8.674216
8299 1049 5 -0.834000 142.746551 7.096881 11.796665
8300 1049 6 0.417000 143.483203 6.668055 12.232192
8301 1049 6 0.417000 142.062112 7.135308 12.464721
8302 1050 5 -0.834000 145.661543 35.681638 11.790972
8303 1050 6 0.417000 145.541163 36.439969 12.362526
8304 1050 6 0.417000 145.991854 36.049059 10.971138
8305 1051 5 -0.834000 1.399428 30.034226 8.266974
8306 1051 6 0.417000 1.854298 29.501017 8.918904
8307 1051 6 0.417000 1.083940 29.403997 7.619277
8308 1052 5 -0.834000 67.774720 29.968769 11.696436
8309 1052 6 0.417000 67.580433 29.091171 12.025536
8310 1052 6 0.417000 67.289376 30.555485 12.276468
8311 1053 5 -0.834000 113.847494 4.194114 11.657398
8312 1053 6 0.417000 114.412302 3.557577 12.095627
8313 1053 6 0.417000 112.991618 4.079998 12.070539
8314 1054 5 -0.834000 145.606270 29.931388 8.311225
8315 1054 6 0.417000 145.489747 29.865421 9.259014
8316 1054 6 0.417000 145.657603 30.871862 8.140624
8317 1055 5 -0.834000 50.405108 21.347828 11.732539
8318 1055 6 0.417000 50.276888 20.983319 12.608281
8319 1055 6 0.417000 49.812617 22.098729 11.696027
8320 1056 5 -0.834000 41.862196 18.595978 11.810494
8321 1056 6 0.417000 41.077625 18.987925 11.427014
8322 1056 6 0.417000 42.496252 19.312257 11.844386
8323 1057 5 -0.834000 139.975650 12.821084 11.800133
8324 1057 6 0.417000 140.547421 12.393770 12.437874
8325 1057 6 0.417000 140.434846 13.628606 11.569310
8326 1058 5 -0.834000 122.689520 32.898828 8.316878
8327 1058 6 0.417000 122.096477 33.640418 8.437608
8328 1058 6 0.417000 122.809219 32.839090 7.369072
8329 1059 5 -0.834000 131.321067 27.050010 11.807223
8330 1059 6 0.417000 131.289909 26.938765 12.757426
8331 1059 6 0.417000 132.255016 27.073841 11.598884
8332 1060 5 -0.834000 102.352513 35.647420 8.173366
8333 1060 6 0.417000 102.352807 36.529838 8.544271
8334 1060 6 0.417000 103.018497 35.176370 8.674175
8335 1061 5 -0.834000 125.480522 35.731143 8.346384
8336 1061 6 0.417000 125.058826 36.590403 8.355087
8337 1061 6 0.417000 125.661937 35.543506 9.267314
8338 1062 5 -0.834000 13.067832 29.954349 11.791349
8339 1062 6 0.417000 13.736823 30.575290 12.079648
8340 1062 6 0.417000 12.470595 30.476529 11.255748
8341 1063 5 -0.834000 96.660808 18.474519 8.333736
8342 1063 6 0.417000 97.576353 18.750620 8.291583
8343 1063 6 0.417000 96.210030 19.202592 8.761452
8344 1064 5 -0.834000 64.864630 18.525514 11.847153
8345 1064 6 0.417000 65.119919 18.397637 10.933531
8346 1064 6 0.417000 63.917840 18.662542 11.814851
8347 1065 5 -0.834000 122.687635 12.903829 8.211577
8348 1065 6 0.417000 123.287673 12.537972 8.861450
8349 1065 6 0.417000 121.864833 12.436056 8.354464
8350 1066 5 -0.834000 1.381252 1.328601 8.257488
8351 1066 6 0.417000 1.631104 2.241112 8.402844
8352 1066 6 0.417000 0.477504 1.374029 7.945385
8353 1067 5 -0.834000 62.094272 1.416835 8.342116
8354 1067 6 0.417000 62.047899 2.369998 8.267537
8355 1067 6 0.417000 62.904709 1.179980 7.891202
8356 1068 5 -0.834000 73.461451 24.294205 11.698421
8357 1068 6 0.417000 73.073866 24.612092 12.513870
8358 1068 6 0.417000 73.643111 25.087137 11.193951
8359 1069 5 -0.834000 15.823150 1.514565 8.286783
8360 1069 6 0.417000 15.147218 1.297297 8.928766
8361 1069 6 0.417000 15.420858 1.321322 7.439995
8362 1070 5 -0.834000 59.184750 7.075689 8.159992
8363 1070 6 0.417000 59.968258 7.600477 7.995843
8364 1070 6 0.417000 58.660368 7.172208 7.365045
8365 1071 5 -0.834000 90.810442 7.140929 8.198405
8366 1071 6 0.417000 91.231993 6.610310 8.874401
8367 1071 6 0.417000 91.462090 7.805004 7.973481
8368 1072 5 -0.834000 24.538381 1.428160 11.847054
8369 1072 6 0.417000 24.905548 2.310723 11.797031
8370 1072 6 0.417000 25.101465 0.968941 12.470180
8371 1073 5 -0.834000 21.694110 27.134519 11.717231
8372 1073 6 0.417000 22.484036 27.345472 11.219488
8373 1073 6 0.417000 22.001889 27.012039 12.615286
8374 1074 5 -0.834000 90.806603 38.633805 11.761772
8375 1074 6 0.417000 91.731309 38.874980 11.707125
8376 1074 6 0.417000 90.752382 37.788287 11.316361
8377 1075 5 -0.834000 125.548673 12.773240 11.796438
8378 1075 6 0.417000 125.555394 13.718773 11.945281
8379 1075 6 0.417000 124.714627 12.478637 12.162236
8380 1076 5 -0.834000 27.329275 15.662703 11.750801
8381 1076 6 0.417000 27.883077 14.910149 11.542958
8382 1076 6 0.417000 27.389381 16.225398 10.978795
8383 1077 5 -0.834000 122.505499 27.165916 8.269510
8384 1077 6 0.417000 122.174054 26.620475 7.556159
8385 1077 6 0.417000 123.324726 26.746093 8.531899
8386 1078 5 -0.834000 61.953419 29.937469 11.811428
8387 1078 6 0.417000 61.816363 29.143170 12.327699
8388 1078 6 0.417000 62.546930 30.469053 12.341894
8389 1079 5 -0.834000 24.605818 21.504123 11.777983
8390 1079 6 0.417000 25.266597 20.924725 12.157326
8391 1079 6 0.417000 23.991116 21.667837 12.493225
8392 1080 5 -0.834000 137.050850 38.650675 8.275430
8393 1080 6 0.417000 136.393773 39.079302 8.823846
8394 1080 6 0.417000 136.578086 38.409039 7.478977
8395 1081 5 -0.834000 105.300904 32.784539 8.178248
8396 1081 6 0.417000 104.777159 32.002196 8.351056
8397 1081 6 0.417000 105.758906 32.953422 9.001621
8398 1082 5 -0.834000 7.127655 32.804393 11.781727
8399 1082 6 0.417000 7.812571 32.819599 11.113228
8400 1082 6 0.417000 6.865627 33.720012 11.877720
8401 1083 5 -0.834000 56.285932 24.251018 11.737287
8402 1083 6 0.417000 56.065873 23.434495 12.185724
8403 1083 6 0.417000 55.843409 24.930765 12.245568
8404 1084 5 -0.834000 85.005852 12.785091 8.259894
8405 1084 6 0.417000 84.057975 12.875381 8.161872
8406 1084 6 0.417000 85.233609 13.394329 8.962167
8407 1085 5 -0.834000 108.088833 7.186587 8.240700
8408 1085 6 0.417000 108.262944 6.412173 7.705725
8409 1085 6 0.417000 107.792510 7.848311 7.615763
8410 1086 5 -0.834000 56.174434 10.024664 8.284941
8411 1086 6 0.417000 56.490273 9.121546 8.314182
8412 1086 6 0.417000 55.616733 10.109021 9.058301
8413 1087 5 -0.834000 99.476121 1.439909 11.788735
8414 1087 6 0.417000 98.564363 1.522217 12.068295
8415 1087 6 0.417000 99.975874 1.413538 12.604691
8416 1088 5 -0.834000 139.827334 10.084522 8.231651
8417 1088 6 0.417000 139.807001 10.436251 7.341649
8418 1088 6 0.417000 138.977003 9.658818 8.340946
8419 1089 5 -0.834000 125.499501 24.255331 8.186463
8420 1089 6 0.417000 125.125193 23.992200 9.027229
8421 1089 6 0.417000 124.823173 24.798857 7.782246
8422 1090 5 -0.834000 70.624564 35.768903 8.303156
8423 1090 6 0.417000 70.143902 35.714513 9.129133
8424 1090 6 0.417000 70.939112 34.878029 8.149424
8425 1091 5 -0.834000 7.122464 15.685559 11.707654
8426 1091 6 0.417000 7.192149 16.233839 10.926139
8427 1091 6 0.417000 7.379819 16.260823 12.428121
8428 1092 5 -0.834000 128.321551 32.845944 8.239144
8429 1092 6 0.417000 129.188831 32.744870 8.631369
8430 1092 6 0.417000 128.422673 32.518345 7.345452
8431 1093 5 -0.834000 99.425216 35.750709 8.174251
8432 1093 6 0.417000 99.663342 34.921151 8.588211
8433 1093 6 0.417000 100.243234 36.246788 8.142892
8434 1094 5 -0.834000 33.246426 7.054499 11.836187
8435 1094 6 0.417000 32.824352 7.855797 11.526335
8436 1094 6 0.417000 32.550408 6.397462 11.826517
8437 1095 5 -0.834000 102.319749 35.641845 11.809779
8438 1095 6 0.417000 102.358059 34.882184 11.228677
8439 1095 6 0.417000 103.070873 36.177431 11.554449
8440 1096 5 -0.834000 145.630128 21.475020 8.343594
8441 1096 6 0.417000 146.282407 20.779488 8.427253
8442 1096 6 0.417000 144.982067 21.124066 7.732792
8443 1097 5 -0.834000 7.288277 24.227637 11.683601
8444 1097 6 0.417000 7.142606 23.318173 11.423048
8445 1097 6 0.417000 6.577843 24.418559 12.296025
8446 1098 5 -0.834000 36.037666 15.693735 8.192958
8447 1098 6 0.417000 35.674524 16.265824 7.516885
8448 1098 6 0.417000 36.455997 16.290780 8.813254
8449 1099 5 -0.834000 70.585186 4.358843 11.796032
8450 1099 6 0.417000 70.219121 4.973747 12.431736
8451 1099 6 0.417000 71.114879 3.758369 12.320521
8452 1100 5 -0.834000 96.580159 12.844487 8.150400
8453 1100 6 0.417000 96.540532 11.919394 8.393022
8454 1100 6 0.417000 96.878839 12.841502 7.240997
8455 1101 5 -0.834000 108.227065 1.356892 8.249567
8456 1101 6 0.417000 107.814509 2.215574 8.156323
8457 1101 6 0.417000 107.601508 0.844434 8.761718
8458 1102 5 -0.834000 64.999962 4.274709 11.738633
8459 1102 6 0.417000 64.468941 3.979215 10.999085
8460 1102 6 0.417000 65.784276 4.648351 11.336793
8461 1103 5 -0.834000 1.387604 38.528952 11.757466
8462 1103 6 0.417000 1.268254 37.581648 11.825309
8463 1103 6 0.417000 1.165635 38.861691 12.627090
8464 1104 5 -0.834000 56.284190 32.758237 8.162684
8465 1104 6 0.417000 56.805415 33.027430 7.406317
8466 1104 6 0.417000 56.821657 32.099358 8.602274
8467 1105 5 -0.834000 142.871271 24.356975 8.283637
8468 1105 6 0.417000 143.026450 24.054043 7.388996
8469 1105 6 0.417000 142.029091 24.809902 8.240962
8470 1106 5 -0.834000 99.616110 32.828514 11.703514
8471 1106 6 0.417000 99.335232 33.738112 11.803365
8472 1106 6 0.417000 100.535604 32.830700 11.969517
8473 1107 5 -0.834000 56.260554 4.228447 11.814714
8474 1107 6 0.417000 55.775519 3.428071 11.613786
8475 1107 6 0.417000 56.811735 3.993999 12.561350
8476 1108 5 -0.834000 47.570295 24.302611 8.294765
8477 1108 6 0.417000 47.853051 24.321601 9.209052
8478 1108 6 0.417000 46.655221 24.582249 8.320705
8479 1109 5 -0.834000 142.688947 21.380386 11.801435
8480 1109 6 0.417000 143.237210 22.082513 11.451209
8481 1109 6 0.417000 143.152191 21.081873 12.584075
8482 1110 5 -0.834000 82.274354 35.726837 11.832039
8483 1110 6 0.417000 82.979868 35.521223 12.445394
8484 1110 6 0.417000 82.723316 36.026412 11.041521
8485 1111 5 -0.834000 122.666278 4.236054 11.675697
8486 1111 6 0.417000 122.731977 5.078579 11.226180
8487 1111 6 0.417000 121.761057 3.958729 11.534638
8488 1112 5 -0.834000 142.730672 21.409926 8.261748
8489 1112 6 0.417000 143.099286 20.635206 8.686206
8490 1112 6 0.417000 143.429664 22.062468 8.304540
8491 1113 5 -0.834000 137.100478 24.356091 8.172359
8492 1113 6 0.417000 137.211616 25.295600 8.026747
8493 1113 6 0.417000 137.987245 23.999072 8.123233
8494 1114 5 -0.834000 53.435838 7.235804 11.838452
8495 1114 6 0.417000 52.556336 7.527790 12.078144
8496 1114 6 0.417000 53.908672 8.042228 11.632681
8497 1115 5 -0.834000 36.021728 38.595646 11.702015
8498 1115 6 0.417000 35.322076 39.171005 11.392691
8499 1115 6 0.417000 35.634245 37.720426 11.693138
8500 1116 5 -0.834000 82.148794 24.362006 11.824210
8501 1116 6 0.417000 82.761975 24.849416 12.374367
8502 1116 6 0.417000 82.178871 23.468077 12.165117
8503 1117 5 -0.834000 24.431194 32.784407 8.183760
8504 1117 6 0.417000 24.556405 32.087082 7.540105
8505 1117 6 0.417000 24.277962 32.324481 9.009120
8506 1118 5 -0.834000 7.215011 15.636023 8.276655
8507 1118 6 0.417000 8.065600 15.283267 8.537984
8508 1118 6 0.417000 6.576771 15.065995 8.705548
8509 1119 5 -0.834000 4.284750 38.497914 11.716464
8510 1119 6 0.417000 3.963259 38.008618 12.473739
8511 1119 6 0.417000 3.648259 38.315680 11.025159
8512 1120 5 -0.834000 24.445237 15.745066 8.310474
8513 1120 6 0.417000 23.557345 15.534247 8.021625
8514 1120 6 0.417000 24.943689 15.846398 7.499604
8515 1121 5 -0.834000 93.695247 12.879435 11.651660
8516 1121 6 0.417000 93.805663 12.762956 10.708011
8517 1121 6 0.417000 93.466312 12.008380 11.975825
8518 1122 5 -0.834000 125.432276 29.954078 11.708873
8519 1122 6 0.417000 125.225900 29.788403 12.628760
8520 1122 6 0.417000 126.386068 29.888828 11.661382
8521 1123 5 -0.834000 62.022613 38.613329 11.823529
8522 1123 6 0.417000 62.950330 38.469669 12.010439
8523 1123 6 0.417000 61.664300 37.734694 11.697655
8524 1124 5 -0.834000 139.893806 1.402487 11.676889
8525 1124 6 0.417000 139.725452 2.337985 11.564052
8526 1124 6 0.417000 139.818007 1.257039 12.619932
8527 1125 5 -0.834000 64.854032 7.161227 8.336711
8528 1125 6 0.417000 64.628530 8.072941 8.151889
8529 1125 6 0.417000 64.854549 7.103079 9.292143
8530 1126 5 -0.834000 99.507870 10.093078 11.678842
8531 1126 6 0.417000 99.041634 9.315369 11.985478
8532 1126 6 0.417000 99.687352 9.916720 10.755307
8533 1127 5 -0.834000 30.193253 18.541345 11.807973
8534 1127 6 0.417000 29.723406 18.007946 12.449036
8535 1127 6 0.417000 29.743459 19.386149 11.822898
8536 1128 5 -0.834000 76.433128 27.152623 11.729103
8537 1128 6 0.417000 77.185911 27.310255 11.159276
8538 1128 6 0.417000 76.618813 27.661466 12.518300
8539 1129 5 -0.834000 70.646294 9.915498 8.197670
8540 1129 6 0.417000 71.187828 9.191166 8.511224
8541 1129 6 0.417000 69.808549 9.800480 8.646207
8542 1130 5 -0.834000 50.536502 10.041879 11.747889
8543 1130 6 0.417000 50.715923 9.283188 12.303253
8544 1130 6 0.417000 51.367164 10.217546 11.305878
8545 1131 5 -0.834000 56.330106 35.750784 8.171988
8546 1131 6 0.417000 56.320831 35.692662 7.216600
8547 1131 6 0.417000 57.199128 35.437724 8.423039
8548 1132 5 -0.834000 7.227206 12.835636 11.723918
8549 1132 6 0.417000 7.984622 12.254372 11.792352
8550 1132 6 0.417000 6.998829 12.823818 10.794436
8551 1133 5 -0.834000 99.440492 29.992445 11.721631
8552 1133 6 0.417000 98.962032 29.407216 11.134421
8553 1133 6 0.417000 98.968305 29.937391 12.552437
8554 1134 5 -0.834000 128.361619 12.933526 8.269757
8555 1134 6 0.417000 127.621601 12.742757 8.846136
8556 1134 6 0.417000 127.959870 13.171727 7.434239
8557 1135 5 -0.834000 27.452732 38.631185 8.156871
8558 1135 6 0.417000 28.074644 38.095731 7.664178
8559 1135 6 0.417000 27.933267 38.896896 8.940909
8560 1136 5 -0.834000 145.769061 21.521911 11.707080
8561 1136 6 0.417000 146.626484 21.947225 11.694228
8562 1136 6 0.417000 145.183034 22.174786 12.089911
8563 1137 5 -0.834000 122.608140 29.948034 11.718323
8564 1137 6 0.417000 122.446807 29.778875 10.790105
8565 1137 6 0.417000 121.771325 29.763558 12.144869
8566 1138 5 -0.834000 82.244670 4.323992 8.333179
8567 1138 6 0.417000 82.001013 5.062768 8.890918
8568 1138 6 0.417000 81.793588 3.573037 8.718955
8569 1139 5 -0.834000 79.256172 32.835443 8.243330
8570 1139 6 0.417000 78.945136 33.565955 8.777971
8571 1139 6 0.417000 78.873541 32.990149 7.379680
8572 1140 5 -0.834000 96.682779 1.328875 8.198836
8573 1140 6 0.417000 96.223384 0.630759 7.732122
8574 1140 6 0.417000 97.550448 1.356548 7.795578
8575 1141 5 -0.834000 116.878030 35.774175 11.703917
8576 1141 6 0.417000 116.975145 36.715002 11.851043
8577 1141 6 0.417000 117.146341 35.644564 10.794279
8578 1142 5 -0.834000 113.925639 7.125712 8.182518
8579 1142 6 0.417000 113.896625 6.894451 9.110908
8580 1142 6 0.417000 113.012110 7.287379 7.946806
8581 1143 5 -0.834000 125.563667 10.032442 8.316055
8582 1143 6 0.417000 126.500040 10.150919 8.156679
8583 1143 6 0.417000 125.351661 9.200285 7.893206
8584 1144 5 -0.834000 102.334314 27.101910 8.311080
8585 1144 6 0.417000 102.534942 27.504597 9.155961
8586 1144 6 0.417000 103.183017 27.022113 7.875686
8587 1145 5 -0.834000 10.077572 4.272661 8.159027
8588 1145 6 0.417000 10.794124 3.647875 8.047549
8589 1145 6 0.417000 10.296378 4.996081 7.571645
8590 1146 5 -0.834000 10.141159 24.326963 8.202504
8591 1146 6 0.417000 9.828068 24.750076 7.403015
8592 1146 6 0.417000 11.093374 24.416814 8.164483
8593 1147 5 -0.834000 64.898629 32.884197 8.234005
8594 1147 6 0.417000 63.979631 32.898296 7.966656
8595 1147 6 0.417000 65.212570 33.771724 8.060887
8596 1148 5 -0.834000 82.237718 38.485441 11.714706
8597 1148 6 0.417000 81.808688 38.336373 10.872124
8598 1148 6 0.417000 82.921712 37.817182 11.757288
8599 1149 5 -0.834000 108.176118 38.599132 8.310609
8600 1149 6 0.417000 108.193408 37.934085 7.622389
8601 1149 6 0.417000 108.912369 38.374791 8.879675
8602 1150 5 -0.834000 41.863486 32.882749 8.163556
8603 1150 6 0.417000 42.239980 32.594020 8.994893
8604 1150 6 0.417000 42.571919 33.360728 7.732407
8605 1151 5 -0.834000 64.875603 27.143230 11.773562
8606 1151 6 0.417000 65.097335 26.414827 11.193480
8607 1151 6 0.417000 63.984094 27.386181 11.523725
8608 1152 5 -0.834000 82.304658 12.901376 8.228292
8609 1152 6 0.417000 81.428153 12.844657 8.608759
8610 1152 6 0.417000 82.894701 12.888316 8.981890
8611 1153 5 -0.834000 30.261435 24.205126 11.651362
8612 1153 6 0.417000 30.194900 24.343994 10.706629
8613 1153 6 0.417000 29.630088 24.817518 12.028997
8614 1154 5 -0.834000 79.301455 38.473467 11.828257
8615 1154 6 0.417000 80.012957 38.786152 12.387027
8616 1154 6 0.417000 79.111581 37.592816 12.151730
8617 1155 5 -0.834000 67.778143 18.556179 11.653260
8618 1155 6 0.417000 67.000511 18.377733 11.124415
8619 1155 6 0.417000 67.464911 19.125477 12.356123
8620 1156 5 -0.834000 27.467123 1.411556 8.267723
8621 1156 6 0.417000 28.005741 1.317528 9.053395
8622 1156 6 0.417000 28.090343 1.626969 7.573874
8623 1157 5 -0.834000 1.508581 4.333192 11.837882
8624 1157 6 0.417000 1.768275 3.886914 12.643877
8625 1157 6 0.417000 1.844759 5.223839 11.937706
8626 1158 5 -0.834000 93.698062 7.225505 8.167980
8627 1158 6 0.417000 94.584054 7.100130 7.828081
8628 1158 6 0.417000 93.709732 6.806812 9.028672
8629 1159 5 -0.834000 111.095445 1.478997 11.756272
8630 1159 6 0.417000 111.028238 0.769603 11.117152
8631 1159 6 0.417000 111.596016 2.160089 11.307079
8632 1160 5 -0.834000 99.469347 10.000086 8.223779
8633 1160 6 0.417000 98.677607 9.768746 7.738122
8634 1160 6 0.417000 99.398393 9.512768 9.044583
8635 1161 5 -0.834000 105.349737 29.932538 8.201172
8636 1161 6 0.417000 105.434048 30.137313 9.132403
8637 1161 6 0.417000 104.516503 30.326775 7.943240
8638 1162 5 -0.834000 99.557797 4.261775 11.816029
8639 1162 6 0.417000 99.697199 4.029970 12.734215
8640 1162 6 0.417000 98.666327 4.609306 11.788928
8641 1163 5 -0.834000 10.109986 29.932209 8.202639
8642 1163 6 0.417000 9.838934 29.163925 7.700143
8643 1163 6 0.417000 10.448646 30.541046 7.546240
8644 1164 5 -0.834000 134.169912 21.332399 8.220176
8645 1164 6 0.417000 133.747126 21.719349 8.986826
8646 1164 6 0.417000 133.448941 21.136625 7.621757
8647 1165 5 -0.834000 18.698764 30.090571 11.668967
8648 1165 6 0.417000 18.006073 30.722044 11.863008
8649 1165 6 0.417000 19.196259 30.022116 12.483856
8650 1166 5 -0.834000 27.450188 15.639272 8.195670
8651 1166 6 0.417000 27.872440 14.814159 7.956667
8652 1166 6 0.417000 27.043279 15.944334 7.384748
8653 1167 5 -0.834000 10.174084 1.361902 11.765440
8654 1167 6 0.417000 9.236820 1.366174 11.571147
8655 1167 6 0.417000 10.222041 1.240967 12.713758
8656 1168 5 -0.834000 90.867426 24.303283 8.274084
8657 1168 6 0.417000 91.246574 24.940102 7.668328
8658 1168 6 0.417000 89.977519 24.164218 7.950110
8659 1169 5 -0.834000 134.069571 7.178815 8.339536
8660 1169 6 0.417000 134.660910 7.889498 8.091586
8661 1169 6 0.417000 134.569146 6.380359 8.168876
8662 1170 5 -0.834000 73.623520 32.759562 11.785531
8663 1170 6 0.417000 74.316273 32.433855 11.210866
8664 1170 6 0.417000 73.925659 32.548737 12.668988
8665 1171 5 -0.834000 70.592370 12.922158 11.826296
8666 1171 6 0.417000 70.568231 13.842740 12.087406
8667 1171 6 0.417000 70.918085 12.936429 10.926330
8668 1172 5 -0.834000 24.533751 35.660196 11.692592
8669 1172 6 0.417000 23.759853 35.411775 12.198161
8670 1172 6 0.417000 25.052687 36.193545 12.294653
8671 1173 5 -0.834000 105.245646 9.934617 8.339793
8672 1173 6 0.417000 104.691301 9.784841 7.573960
8673 1173 6 0.417000 104.886073 9.356927 9.013004
8674 1174 5 -0.834000 113.891804 18.597897 11.694816
8675 1174 6 0.417000 114.532926 19.150804 11.248174
8676 1174 6 0.417000 114.408998 17.884019 12.067804
8677 1175 5 -0.834000 24.422519 7.097289 8.266532
8678 1175 6 0.417000 23.519563 7.349875 8.459149
8679 1175 6 0.417000 24.344491 6.266439 7.797670
8680 1176 5 -0.834000 76.492574 35.711022 11.675134
8681 1176 6 0.417000 76.411601 35.956124 10.753397
8682 1176 6 0.417000 76.414753 36.537866 12.151060
8683 1177 5 -0.834000 50.403240 24.299979 11.701286
8684 1177 6 0.417000 50.887028 24.756947 12.389298
8685 1177 6 0.417000 50.424870 24.898542 10.954635
8686 1178 5 -0.834000 128.371196 9.939956 11.745310
8687 1178 6 0.417000 129.109433 9.458796 11.371514
8688 1178 6 0.417000 128.127843 10.570540 11.067537
8689 1179 5 -0.834000 73.538916 35.623682 8.187567
8690 1179 6 0.417000 73.181521 35.753142 7.309079
8691 1179 6 0.417000 74.048530 36.415720 8.358451
8692 1180 5 -0.834000 116.873469 4.269232 8.226726
8693 1180 6 0.417000 116.065158 4.018453 7.779540
8694 1180 6 0.417000 117.005055 5.186799 7.988004
8695 1181 5 -0.834000 79.360408 1.382817 8.293941
8696 1181 6 0.417000 79.291992 2.119635 8.901106
8697 1181 6 0.417000 80.292449 1.332368 8.081844
8698 1182 5 -0.834000 128.269304 9.936647 8.319067
8699 1182 6 0.417000 127.460251 10.057521 7.822021
8700 1182 6 0.417000 128.230166 10.601469 9.006608
8701 1183 5 -0.834000 50.509938 15.724439 8.153486
8702 1183 6 0.417000 50.134504 15.937348 7.299115
8703 1183 6 0.417000 51.108996 14.998726 7.978268
8704 1184 5 -0.834000 93.791142 29.976342 11.656635
8705 1184 6 0.417000 93.890839 29.711901 10.742106
8706 1184 6 0.417000 93.243137 29.294500 12.045238
8707 1185 5 -0.834000 10.006521 29.902735 11.723115
8708 1185 6 0.417000 10.390925 30.768363 11.861513
8709 1185 6 0.417000 9.533781 29.717557 12.534569
8710 1186 5 -0.834000 134.148805 32.851318 8.254467
8711 1186 6 0.417000 134.419551 31.974852 8.527846
8712 1186 6 0.417000 134.949153 33.256484 7.920527
8713 1187 5 -0.834000 36.082715 4.246724 11.769653
8714 1187 6 0.417000 36.550045 3.817528 12.486329
8715 1187 6 0.417000 35.678445 5.014995 12.172836
8716 1188 5 -0.834000 61.981624 4.237152 11.674363
8717 1188 6 0.417000 61.145495 4.575062 11.353524
8718 1188 6 0.417000 62.628863 4.876654 11.377124
8719 1189 5 -0.834000 87.900450 18.579320 11.782101
8720 1189 6 0.417000 88.304643 17.901603 11.240289
8721 1189 6 0.417000 88.599458 19.216045 11.931102
8722 1190 5 -0.834000 10.033860 7.133234 8.296081
8723 1190 6 0.417000 10.895188 6.722779 8.372715
8724 1190 6 0.417000 10.197505 8.064323 8.446165
8725 1191 5 -0.834000 47.573041 10.028726 11.791066
8726 1191 6 0.417000 47.971723 9.931269 10.926320
8727 1191 6 0.417000 47.792561 10.921566 12.057296
8728 1192 5 -0.834000 47.517218 35.808772 11.803891
8729 1192 6 0.417000 47.061765 35.333114 11.109237
8730 1192 6 0.417000 47.085429 35.527258 12.610451
8731 1193 5 -0.834000 122.668999 35.640963 11.736661
8732 1193 6 0.417000 123.130648 35.610288 10.898704
8733 1193 6 0.417000 122.369210 34.743056 11.878509
8734 1194 5 -0.834000 128.403520 27.094337 11.673399
8735 1194 6 0.417000 128.040843 26.278825 11.327513
8736 1194 6 0.417000 127.719027 27.745574 11.519807
8737 1195 5 -0.834000 44.767792 27.228673 8.172637
8738 1195 6 0.417000 45.311141 26.662150 8.720410
8739 1195 6 0.417000 45.246697 28.056577 8.134478
8740 1196 5 -0.834000 41.910939 35.743724 8.190567
8741 1196 6 0.417000 41.696861 35.337359 7.350763
8742 1196 6 0.417000 42.107841 35.007739 8.770038
8743 1197 5 -0.834000 134.088699 18.634889 11.791499
8744 1197 6 0.417000 133.229168 18.944499 11.505878
8745 1197 6 0.417000 134.193241 17.786250 11.361249
8746 1198 5 -0.834000 47.526856 32.879856 8.181429
8747 1198 6 0.417000 47.056955 32.763105 9.007137
8748 1198 6 0.417000 48.153444 32.156635 8.157549
8749 1199 5 -0.834000 18.755510 1.411336 11.721241
8750 1199 6 0.417000 18.337274 1.203485 12.556770
8751 1199 6 0.417000 18.349945 2.234187 11.447992
8752 1200 5 -0.834000 38.885273 12.866044 8.343648
8753 1200 6 0.417000 38.468574 13.121285 9.166720
8754 1200 6 0.417000 39.818501 13.021854 8.488703
8755 1201 5 -0.834000 44.725005 24.253667 8.171330
8756 1201 6 0.417000 44.651448 23.385947 8.568677
8757 1201 6 0.417000 44.906158 24.839584 8.906256
8758 1202 5 -0.834000 119.787294 1.345331 8.227323
8759 1202 6 0.417000 119.464755 2.201809 8.507761
8760 1202 6 0.417000 119.372672 1.199397 7.377015
8761 1203 5 -0.834000 4.320859 15.627822 11.724212
8762 1203 6 0.417000 4.425302 14.973861 12.415340
8763 1203 6 0.417000 4.377691 16.468378 12.178599
8764 1204 5 -0.834000 134.174037 12.771310 11.726261
8765 1204 6 0.417000 134.718158 13.309679 12.300999
8766 1204 6 0.417000 133.653083 13.401906 11.229082
8767 1205 5 -0.834000 108.073948 21.408017 8.220937
8768 1205 6 0.417000 108.911145 21.701776 7.861717
8769 1205 6 0.417000 107.834314 22.084067 8.854785
8770 1206 5 -0.834000 39.026227 24.187906 11.751790
8771 1206 6 0.417000 38.154420 23.857310 11.535247
8772 1206 6 0.417000 39.424243 23.491246 12.273786
8773 1207 5 -0.834000 85.108247 15.719144 8.339016
8774 1207 6 0.417000 85.666446 16.259237 7.779601
8775 1207 6 0.417000 84.512988 16.341617 8.756660
8776 1208 5 -0.834000 76.485595 18.600717 11.661365
8777 1208 6 0.417000 75.893817 17.897761 11.929475
8778 1208 6 0.417000 77.338139 18.175118 11.570444
8779 1209 5 -0.834000 27.334376 1.472120 11.827337
8780 1209 6 0.417000 27.571992 2.043775 11.097282
8781 1209 6 0.417000 27.548217 1.980504 12.609673
8782 1210 5 -0.834000 134.071411 27.165157 8.335965
8783 1210 6 0.417000 133.917546 27.984378 7.865396
8784 1210 6 0.417000 135.024242 27.076623 8.358447
8785 1211 5 -0.834000 87.933327 35.617647 8.241061
8786 1211 6 0.417000 88.668170 36.004389 8.717158
8787 1211 6 0.417000 87.196986 36.202456 8.420035
8788 1212 5 -0.834000 131.211720 15.685671 11.674698
8789 1212 6 0.417000 131.352020 15.689984 12.621550
8790 1212 6 0.417000 130.429912 16.222618 11.545487
8791 1213 5 -0.834000 53.381435 4.222452 11.783456
8792 1213 6 0.417000 52.918078 4.088075 10.956731
8793 1213 6 0.417000 52.910566 3.677345 12.413831
8794 1214 5 -0.834000 87.883096 4.374056 11.814373
8795 1214 6 0.417000 88.654611 4.226910 11.267248
8796 1214 6 0.417000 87.465201 5.148026 11.436794
8797 1215 5 -0.834000 18.840823 12.760359 11.685925
8798 1215 6 0.417000 19.247317 12.898417 10.830394
8799 1215 6 0.417000 18.977689 13.584856 12.152512
8800 1216 5 -0.834000 134.217407 35.650986 11.741818
8801 1216 6 0.417000 134.187510 36.567406 12.016615
8802 1216 6 0.417000 134.534529 35.179655 12.512216
8803 1217 5 -0.834000 128.290535 15.796560 11.717249
8804 1217 6 0.417000 128.930306 15.103020 11.878269
8805 1217 6 0.417000 127.989773 15.642416 10.821697
8806 1218 5 -0.834000 116.853375 7.049509 11.751642
8807 1218 6 0.417000 115.983949 7.323989 11.460110
8808 1218 6 0.417000 117.023148 7.578359 12.531210
8809 1219 5 -0.834000 139.962011 27.089199 8.211616
8810 1219 6 0.417000 139.795528 27.522775 7.374641
8811 1219 6 0.417000 140.862508 27.328467 8.430905
8812 1220 5 -0.834000 122.688223 38.528407 8.238501
8813 1220 6 0.417000 122.065340 38.176376 8.874365
8814 1220 6 0.417000 122.173746 39.140221 7.711977
8815 1221 5 -0.834000 82.167481 24.274592 8.209035
8816 1221 6 0.417000 82.871879 23.860351 7.710579
8817 1221 6 0.417000 82.357844 24.055321 9.121128
8818 1222 5 -0.834000 125.577478 38.526893 8.204886
8819 1222 6 0.417000 125.589892 37.896046 7.485088
8820 1222 6 0.417000 126.304939 38.262695 8.768120
8821 1223 5 -0.834000 131.332664 12.923618 11.691319
8822 1223 6 0.417000 131.602305 12.604688 12.552602
8823 1223 6 0.417000 131.906039 13.671126 11.521899
8824 1224 5 -0.834000 18.802264 38.506133 11.652354
8825 1224 6 0.417000 18.364782 39.166023 12.190300
8826 1224 6 0.417000 19.018427 38.963683 10.839856
8827 1225 5 -0.834000 44.774891 12.917805 11.742096
8828 1225 6 0.417000 44.650739 12.977692 10.794872
8829 1225 6 0.417000 44.047525 13.418443 12.111598
8830 1226 5 -0.834000 111.099364 7.115617 8.161113
8831 1226 6 0.417000 111.341274 7.141835 7.235358
8832 1226 6 0.417000 110.513824 7.863844 8.277434
8833 1227 5 -0.834000 145.656304 12.894939 8.304943
8834 1227 6 0.417000 146.103213 12.079014 8.530269
8835 1227 6 0.417000 145.147829 12.681878 7.522453
8836 1228 5 -0.834000 111.038985 21.522872 11.751100
8837 1228 6 0.417000 111.051499 21.624436 10.799385
8838 1228 6 0.417000 111.329537 22.370884 12.086788
8839 1229 5 -0.834000 76.382258 4.199474 8.153195
8840 1229 6 0.417000 77.071678 3.550624 8.294353
8841 1229 6 0.417000 75.567998 3.698403 8.199462
8842 1230 5 -0.834000 85.121253 15.642189 11.751746
8843 1230 6 0.417000 85.389253 15.367251 10.874924
8844 1230 6 0.417000 84.751636 16.516246 11.626688
8845 1231 5 -0.834000 125.451727 32.862149 8.324616
8846 1231 6 0.417000 126.090471 33.278047 7.745594
8847 1231 6 0.417000 125.612230 33.256717 9.181813
8848 1232 5 -0.834000 108.230227 32.803773 11.732340
8849 1232 6 0.417000 107.677024 32.027522 11.819697
8850 1232 6 0.417000 107.970318 33.190852 10.896368
8851 1233 5 -0.834000 128.389771 32.868883 11.724122
8852 1233 6 0.417000 128.759432 32.581200 12.558880
8853 1233 6 0.417000 128.084483 32.063481 11.306559
8854 1234 5 -0.834000 111.025397 38.612908 11.770948
8855 1234 6 0.417000 110.743730 39.510695 11.595239
8856 1234 6 0.417000 111.688000 38.434320 11.103644
8857 1235 5 -0.834000 102.315921 9.902004 11.767641
8858 1235 6 0.417000 102.345575 10.682308 12.321245
8859 1235 6 0.417000 102.855247 9.259765 12.229040
8860 1236 5 -0.834000 30.250132 9.964220 8.298904
8861 1236 6 0.417000 30.941083 10.622076 8.376654
8862 1236 6 0.417000 29.621587 10.347500 7.687136
8863 1237 5 -0.834000 70.763245 12.848897 8.314569
8864 1237 6 0.417000 71.439870 13.335504 8.785338
8865 1237 6 0.417000 70.386621 13.486886 7.708471
8866 1238 5 -0.834000 64.988440 1.467636 8.341081
8867 1238 6 0.417000 65.879217 1.685565 8.615406
8868 1238 6 0.417000 64.737606 2.179646 7.752560
8869 1239 5 -0.834000 36.008324 1.517075 11.751438
8870 1239 6 0.417000 36.444350 0.971816 12.406270
8871 1239 6 0.417000 35.205324 1.812005 12.180901
8872 1240 5 -0.834000 122.555583 12.763569 11.704365
8873 1240 6 0.417000 123.006724 11.996065 12.055992
8874 1240 6 0.417000 123.256955 13.319928 11.365581
8875 1241 5 -0.834000 36.124501 4.233725 8.176759
8876 1241 6 0.417000 35.656968 3.674366 8.797052
8877 1241 6 0.417000 37.015738 3.884794 8.163522
8878 1242 5 -0.834000 67.705757 32.771396 11.656389
8879 1242 6 0.417000 66.961107 33.081689 11.141174
8880 1242 6 0.417000 67.954276 31.943793 11.244632
8881 1243 5 -0.834000 96.687180 35.650523 11.702331
8882 1243 6 0.417000 96.219117 36.435535 11.417889
8883 1243 6 0.417000 97.465152 35.620000 11.145501
8884 1244 5 -0.834000 73.656272 27.125146 8.249551
8885 1244 6 0.417000 73.171735 27.003655 9.066065
8886 1244 6 0.417000 74.545795 26.836075 8.453064
8887 1245 5 -0.834000 36.038170 32.847821 11.789758
8888 1245 6 0.417000 35.324604 33.409335 11.486845
8889 1245 6 0.417000 35.907102 32.782449 12.735686
8890 1246 5 -0.834000 131.199665 15.808778 8.215257
8891 1246 6 0.417000 131.445038 15.820627 9.140397
8892 1246 6 0.417000 130.718989 14.988403 8.104949
8893 1247 5 -0.834000 10.024801 12.826716 11.756474
8894 1247 6 0.417000 9.713248 13.720995 11.617084
8895 1247 6 0.417000 10.974420 12.884217 11.650880
8896 1248 5 -0.834000 122.667776 32.849732 11.826855
8897 1248 6 0.417000 121.886824 33.013774 12.355471
8898 1248 6 0.417000 122.469717 32.043885 11.349764
8899 1249 5 -0.834000 12.927635 35.802648 8.223450
8900 1249 6 0.417000 13.493058 36.570350 8.138818
8901 1249 6 0.417000 13.471553 35.151708 8.666916
8902 1250 5 -0.834000 59.113995 1.462621 11.835753
8903 1250 6 0.417000 59.855366 1.922764 11.442220
8904 1250 6 0.417000 59.111214 1.749010 12.749102
8905 1251 5 -0.834000 47.666738 12.861553 11.667217
8906 1251 6 0.417000 47.266258 12.023294 11.436634
8907 1251 6 0.417000 48.294552 12.645952 12.356853
8908 1252 5 -0.834000 116.876713 21.503817 11.732880
8909 1252 6 0.417000 117.544621 20.826678 11.625113
8910 1252 6 0.417000 117.368172 22.325031 11.750415
8911 1253 5 -0.834000 85.010864 30.036575 8.205342
8912 1253 6 0.417000 85.415999 30.491322 8.943788
8913 1253 6 0.417000 84.496146 29.336899 8.607525
8914 1254 5 -0.834000 12.887646 18.616504 11.771391
8915 1254 6 0.417000 11.961102 18.457282 11.591401
8916 1254 6 0.417000 12.888022 19.194789 12.534162
8917 1255 5 -0.834000 119.701016 24.304654 8.192446
8918 1255 6 0.417000 119.365179 23.683793 7.545935
8919 1255 6 0.417000 119.503521 25.165570 7.823594
8920 1256 5 -0.834000 36.097810 7.112802 8.188929
8921 1256 6 0.417000 36.522232 7.820931 7.704521
8922 1256 6 0.417000 36.407952 6.312564 7.765062
8923 1257 5 -0.834000 128.443824 18.524639 11.798791
8924 1257 6 0.417000 128.798305 17.677789 12.069753
8925 1257 6 0.417000 128.884430 18.715374 10.970710
8926 1258 5 -0.834000 122.577225 10.070888 11.802326
8927 1258 6 0.417000 123.358098 10.533320 11.497982
8928 1258 6 0.417000 122.737181 9.154793 11.575574
8929 1259 5 -0.834000 41.746112 12.899590 11.834868
8930 1259 6 0.417000 41.298323 12.787257 12.673378
8931 1259 6 0.417000 41.415616 13.731504 11.495865
8932 1260 5 -0.834000 44.630486 35.795788 8.347523
8933 1260 6 0.417000 45.164250 36.161183 9.053083
8934 1260 6 0.417000 45.195995 35.830751 7.576025
8935 1261 5 -0.834000 64.875649 27.184443 8.211023
8936 1261 6 0.417000 64.478064 26.336729 8.012182
8937 1261 6 0.417000 65.396987 27.026305 8.998062
8938 1262 5 -0.834000 90.917152 15.630862 8.200321
8939 1262 6 0.417000 90.263848 16.283490 8.452317
8940 1262 6 0.417000 90.412925 14.830390 8.054608
8941 1263 5 -0.834000 73.615597 10.015679 8.153745
8942 1263 6 0.417000 74.558648 9.918692 8.021538
8943 1263 6 0.417000 73.532657 10.752416 8.759197
8944 1264 5 -0.834000 142.869958 24.372998 11.720762
8945 1264 6 0.417000 143.434041 24.431310 12.491892
8946 1264 6 0.417000 142.929976 23.457389 11.448201
8947 1265 5 -0.834000 15.802924 38.638400 11.683662
8948 1265 6 0.417000 16.605255 39.022892 12.036739
8949 1265 6 0.417000 15.304078 38.372551 12.456131
8950 1266 5 -0.834000 102.420032 24.354243 11.671868
8951 1266 6 0.417000 101.759225 25.028043 11.831737
8952 1266 6 0.417000 102.551130 23.939571 12.524565
8953 1267 5 -0.834000 18.821368 35.676196 8.312728
8954 1267 6 0.417000 19.350884 36.447717 8.514224
8955 1267 6 0.417000 19.335296 34.939406 8.643257
8956 1268 5 -0.834000 1.387726 9.989338 8.267481
8957 1268 6 0.417000 0.756986 9.708810 7.604380
8958 1268 6 0.417000 1.136397 10.890043 8.471923
8959 1269 5 -0.834000 105.321270 35.719548 11.773627
8960 1269 6 0.417000 106.253259 35.828206 11.962892
8961 1269 6 0.417000 105.190287 34.771670 11.749083
8962 1270 5 -0.834000 105.240305 1.373926 11.832575
8963 1270 6 0.417000 104.948899 1.393552 10.921022
8964 1270 6 0.417000 104.923503 2.197467 12.203586
8965 1271 5 -0.834000 59.044231 12.955293 8.302896
8966 1271 6 0.417000 59.278773 12.105009 8.674702
8967 1271 6 0.417000 59.795512 13.516559 8.494698
8968 1272 5 -0.834000 38.981471 38.551215 8.257707
8969 1272 6 0.417000 38.897908 38.961044 9.118688
8970 1272 6 0.417000 38.419632 37.777670 8.304579
8971 1273 5 -0.834000 7.176994 27.227460 8.160263
8972 1273 6 0.417000 7.657241 27.461458 8.954517
8973 1273 6 0.417000 6.724232 28.032116 7.907741
8974 1274 5 -0.834000 24.613913 1.501520 8.260951
8975 1274 6 0.417000 24.062765 1.638974 9.031388
8976 1274 6 0.417000 25.125590 2.306920 8.185135
8977 1275 5 -0.834000 1.502697 32.777147 8.257026
8978 1275 6 0.417000 1.039332 32.586429 9.072594
8979 1275 6 0.417000 1.924011 33.622477 8.412409
8980 1276 5 -0.834000 131.285808 18.618634 8.296865
8981 1276 6 0.417000 131.689299 18.988326 9.082202
8982 1276 6 0.417000 131.105380 17.706998 8.526206
8983 1277 5 -0.834000 113.973565 7.097229 11.690136
8984 1277 6 0.417000 113.939448 6.245454 11.254765
8985 1277 6 0.417000 113.171162 7.540153 11.414093
8986 1278 5 -0.834000 7.233407 29.908250 11.654961
8987 1278 6 0.417000 7.759760 30.689949 11.487235
8988 1278 6 0.417000 7.254964 29.803976 12.606220
8989 1279 5 -0.834000 90.794310 32.790799 8.212688
8990 1279 6 0.417000 90.833722 33.306633 7.407334
8991 1279 6 0.417000 90.925266 31.887129 7.925526
8992 1280 5 -0.834000 56.227183 1.433134 11.727901
8993 1280 6 0.417000 56.355962 2.082454 12.419299
8994 1280 6 0.417000 57.113087 1.188396 11.460489
8995 1281 5 -0.834000 50.497759 32.952899 11.721980
8996 1281 6 0.417000 51.450781 32.904279 11.796925
8997 1281 6 0.417000 50.199940 32.053859 11.860773
8998 1282 5 -0.834000 125.490559 10.090721 11.732538
8999 1282 6 0.417000 126.064316 10.365938 12.447583
9000 1282 6 0.417000 124.851773 10.798942 11.651253
9001 1283 5 -0.834000 113.915407 21.445280 8.338741
9002 1283 6 0.417000 114.049153 20.566684 7.983194
9003 1283 6 0.417000 113.552152 21.298049 9.212011
9004 1284 5 -0.834000 64.837140 29.996017 11.728072
9005 1284 6 0.417000 64.164811 30.155452 12.390482
9006 1284 6 0.417000 64.483342 29.285380 11.193231
9007 1285 5 -0.834000 82.214595 1.384056 11.792640
9008 1285 6 0.417000 82.578941 1.244589 10.918550
9009 1285 6 0.417000 82.918679 1.810867 12.280829
9010 1286 5 -0.834000 53.453163 30.094773 11.686669
9011 1286 6 0.417000 53.663670 29.417816 11.043516
9012 1286 6 0.417000 54.133330 30.010744 12.354909
9013 1287 5 -0.834000 62.051048 15.703021 8.328403
9014 1287 6 0.417000 62.114836 16.652107 8.221641
9015 1287 6 0.417000 61.150943 15.493442 8.079166
9016 1288 5 -0.834000 99.424124 15.688806 8.326936
9017 1288 6 0.417000 99.103645 14.986865 8.893332
9018 1288 6 0.417000 99.559100 15.268942 7.477391
9019 1289 5 -0.834000 113.913958 12.828412 8.313307
9020 1289 6 0.417000 113.516137 11.977415 8.129525
9021 1289 6 0.417000 114.845313 12.638561 8.426299
9022 1290 5 -0.834000 148.565104 4.283978 8.200329
9023 1290 6 0.417000 148.870496 3.377022 8.220300
9024 1290 6 0.417000 147.753224 4.275045 8.707283
9025 1291 5 -0.834000 24.573116 24.279940 11.766510
9026 1291 6 0.417000 23.926934 24.818257 11.309460
9027 1291 6 0.417000 24.214771 24.170957 12.647387
9028 1292 5 -0.834000 96.534788 24.244511 11.704364
9029 1292 6 0.417000 96.544234 23.403862 11.246705
9030 1292 6 0.417000 96.722531 24.890562 11.023480
9031 1293 5 -0.834000 24.553958 38.614080 11.721991
9032 1293 6 0.417000 25.119768 37.843735 11.670429
9033 1293 6 0.417000 23.677623 38.281623 11.527721
9034 1294 5 -0.834000 36.060364 27.187043 8.181702
9035 1294 6 0.417000 36.454113 28.011558 8.466953
9036 1294 6 0.417000 36.734213 26.773244 7.642322
9037 1295 5 -0.834000 15.870314 4.248570 8.209351
9038 1295 6 0.417000 15.964817 4.494616 7.289154
9039 1295 6 0.417000 16.738584 4.391013 8.586246
9040 1296 5 -0.834000 82.168627 30.066154 8.174599
9041 1296 6 0.417000 81.535770 29.421534 8.491125
9042 1296 6 0.417000 82.316458 30.644714 8.922694
9043 1297 5 -0.834000 21.667788 24.227011 8.250633
9044 1297 6 0.417000 21.653348 24.120272 9.201753
9045 1297 6 0.417000 20.748264 24.333875 8.007144
9046 1298 5 -0.834000 44.766060 38.648885 11.756474
9047 1298 6 0.417000 44.824168 39.470829 12.243571
9048 1298 6 0.417000 44.223855 38.858416 10.995986
9049 1299 5 -0.834000 139.819854 27.067093 11.653567
9050 1299 6 0.417000 139.894487 27.422788 10.768049
9051 1299 6 0.417000 139.607153 27.824249 12.199189
9052 1300 5 -0.834000 137.095143 27.189327 8.318474
9053 1300 6 0.417000 137.180007 27.696964 9.125527
9054 1300 6 0.417000 136.589436 27.752655 7.732681
9055 1301 5 -0.834000 116.787160 38.558499 11.694047
9056 1301 6 0.417000 116.714469 39.373024 12.191538
9057 1301 6 0.417000 117.699640 38.290937 11.803696
9058 1302 5 -0.834000 56.346506 18.594146 11.810809
9059 1302 6 0.417000 56.173672 17.683147 12.048383
9060 1302 6 0.417000 55.679658 18.802154 11.156380
9061 1303 5 -0.834000 131.205412 18.631561 11.733999
9062 1303 6 0.417000 130.840812 19.457780 12.051271
9063 1303 6 0.417000 132.144239 18.799272 11.652097
9064 1304 5 -0.834000 142.693355 27.146150 8.191126
9065 1304 6 0.417000 141.815599 26.911289 8.492151
9066 1304 6 0.417000 143.283000 26.692548 8.793451
9067 1305 5 -0.834000 113.903208 15.725802 11.794741
9068 1305 6 0.417000 114.362664 14.909482 11.991599
9069 1305 6 0.417000 113.930230 16.219995 12.614055
9070 1306 5 -0.834000 24.441099 12.824759 11.772461
9071 1306 6 0.417000 23.646032 12.721663 11.249516
9072 1306 6 0.417000 24.575637 13.771234 11.820594
9073 1307 5 -0.834000 21.583641 7.083437 11.665368
9074 1307 6 0.417000 22.034295 7.269358 12.489125
9075 1307 6 0.417000 22.247471 6.663947 11.118020
9076 1308 5 -0.834000 36.146226 32.886469 8.165666
9077 1308 6 0.417000 36.646368 32.649969 7.384539
9078 1308 6 0.417000 36.785257 32.857356 8.877722
9079 1309 5 -0.834000 116.789346 32.845792 8.204689
9080 1309 6 0.417000 116.489000 31.999070 8.534971
9081 1309 6 0.417000 116.651997 33.450305 8.934025
9082 1310 5 -0.834000 27.404628 21.520542 8.258122
9083 1310 6 0.417000 26.881567 21.064409 8.917350
9084 1310 6 0.417000 26.819278 21.608167 7.505847
9085 1311 5 -0.834000 79.228541 29.989306 11.700492
9086 1311 6 0.417000 79.586025 29.289471 12.246996
9087 1311 6 0.417000 78.785331 29.532741 10.985408
9088 1312 5 -0.834000 70.593352 21.419019 11.805954
9089 1312 6 0.417000 69.995295 21.487448 12.550183
9090 1312 6 0.417000 71.166382 22.181377 11.887677
9091 1313 5 -0.834000 102.449445 38.578863 11.837599
9092 1313 6 0.417000 102.153652 37.680968 11.987675
9093 1313 6 0.417000 101.733739 39.124862 12.162995
9094 1314 5 -0.834000 70.715324 7.218680 11.739541
9095 1314 6 0.417000 70.545889 8.160223 11.707600
9096 1314 6 0.417000 71.595627 7.145625 12.108271
9097 1315 5 -0.834000 85.016296 1.454314 11.817112
9098 1315 6 0.417000 84.796645 1.027000 10.989231
9099 1315 6 0.417000 85.194504 0.732432 12.419906
9100 1316 5 -0.834000 53.405952 18.543438 11.679470
9101 1316 6 0.417000 52.768649 18.611838 10.968556
9102 1316 6 0.417000 54.245592 18.752126 11.269976
9103 1317 5 -0.834000 27.483133 4.316109 8.166555
9104 1317 6 0.417000 27.877739 5.006026 8.699971
9105 1317 6 0.417000 27.850838 4.448418 7.292759
9106 1318 5 -0.834000 33.215705 1.507325 11.692677
9107 1318 6 0.417000 32.758344 0.956122 12.327680
9108 1318 6 0.417000 33.699066 0.890191 11.143369
9109 1319 5 -0.834000 88.022098 24.246103 8.204718
9110 1319 6 0.417000 87.430861 23.682230 7.706002
9111 1319 6 0.417000 87.668636 24.237388 9.094223
9112 1320 5 -0.834000 50.482747 15.809102 11.774807
9113 1320 6 0.417000 50.993867 15.122684 12.203547
9114 1320 6 0.417000 50.671740 16.599947 12.279859
9115 1321 5 -0.834000 67.826287 29.905068 8.245815
9116 1321 6 0.417000 68.285294 30.707173 8.495158
9117 1321 6 0.417000 68.493281 29.371160 7.814198
9118 1322 5 -0.834000 79.281020 9.902358 8.169589
9119 1322 6 0.417000 80.135008 10.203709 7.859551
9120 1322 6 0.417000 78.896927 9.453613 7.416374
9121 1323 5 -0.834000 142.760969 1.407265 11.673224
9122 1323 6 0.417000 141.861631 1.455952 11.997343
9123 1323 6 0.417000 142.947774 0.469780 11.623639
9124 1324 5 -0.834000 134.126769 38.621288 8.245503
9125 1324 6 0.417000 134.331842 39.241969 8.944739
9126 1324 6 0.417000 134.693711 38.881691 7.519557
9127 1325 5 -0.834000 99.487255 18.512158 8.157455
9128 1325 6 0.417000 98.530108 18.517178 8.166250
9129 1325 6 0.417000 99.718655 17.718865 7.674370
9130 1326 5 -0.834000 93.811385 27.198958 8.216724
9131 1326 6 0.417000 94.194293 26.723745 8.954142
9132 1326 6 0.417000 94.536510 27.711052 7.858694
9133 1327 5 -0.834000 41.755931 30.082720 8.184890
9134 1327 6 0.417000 41.816338 30.955779 7.797140
9135 1327 6 0.417000 41.066218 29.645531 7.685497
9136 1328 5 -0.834000 99.616486 32.868657 8.181314
9137 1328 6 0.417000 99.558453 32.090087 7.627515
9138 1328 6 0.417000 99.071546 33.519241 7.738582
9139 1329 5 -0.834000 82.250200 21.479446 11.686491
9140 1329 6 0.417000 81.853151 20.748898 12.160710
9141 1329 6 0.417000 82.810309 21.909104 12.332947
9142 1330 5 -0.834000 148.494918 35.646975 11.839226
9143 1330 6 0.417000 149.448313 35.689168 11.913324
9144 1330 6 0.417000 148.314714 35.875779 10.927410
9145 1331 5 -0.834000 134.222060 4.226637 11.810351
9146 1331 6 0.417000 133.339724 3.896167 11.641516
9147 1331 6 0.417000 134.464498 3.843721 12.653459
9148 1332 5 -0.834000 13.038799 27.052109 11.821496
9149 1332 6 0.417000 12.468839 27.671468 12.277315
9150 1332 6 0.417000 12.796188 27.136565 10.899412
9151 1333 5 -0.834000 1.351025 35.637487 8.299087
9152 1333 6 0.417000 0.518187 35.170990 8.228411
9153 1333 6 0.417000 1.149035 36.410709 8.825926
9154 1334 5 -0.834000 122.537313 18.624032 8.205135
9155 1334 6 0.417000 122.592341 19.569693 8.067549
9156 1334 6 0.417000 123.199872 18.439418 8.870843
9157 1335 5 -0.834000 64.961131 21.481948 8.279323
9158 1335 6 0.417000 64.321859 21.824455 8.904024
9159 1335 6 0.417000 65.603728 21.023363 8.820618
9160 1336 5 -0.834000 67.742722 35.750630 8.297077
9161 1336 6 0.417000 68.458493 35.140977 8.117558
9162 1336 6 0.417000 67.052978 35.498390 7.683187
9163 1337 5 -0.834000 76.475937 29.956740 8.309242
9164 1337 6 0.417000 76.578885 30.035728 7.360878
9165 1337 6 0.417000 77.119387 30.565507 8.672017
9166 1338 5 -0.834000 64.881700 35.693139 8.330474
9167 1338 6 0.417000 65.099819 36.556193 8.682317
9168 1338 6 0.417000 64.849401 35.122203 9.098081
9169 1339 5 -0.834000 67.718650 7.060640 11.693639
9170 1339 6 0.417000 67.596138 6.374494 11.037570
9171 1339 6 0.417000 67.742209 6.592975 12.528484
9172 1340 5 -0.834000 64.895768 18.659624 8.323815
9173 1340 6 0.417000 64.822749 17.983208 7.650494
9174 1340 6 0.417000 65.812305 18.933614 8.290340
9175 1341 5 -0.834000 79.401596 24.336853 11.753050
9176 1341 6 0.417000 78.549151 24.528761 12.143869
9177 1341 6 0.417000 79.766816 23.643300 12.302442
9178 1342 5 -0.834000 56.303999 29.938418 11.779729
9179 1342 6 0.417000 56.064833 30.861045 11.867991
9180 1342 6 0.417000 56.794012 29.895012 10.958610
9181 1343 5 -0.834000 62.012109 27.129353 11.774188
9182 1343 6 0.417000 62.962643 27.030215 11.720446
9183 1343 6 0.417000 61.881926 27.894896 12.333856
9184 1344 5 -0.834000 18.731175 32.765675 11.833781
9185 1344 6 0.417000 17.838087 32.676978 11.500979
9186 1344 6 0.417000 18.878500 33.710487 11.876869
9187 1345 5 -0.834000 119.695767 10.030032 11.665695
9188 1345 6 0.417000 119.376581 10.841369 12.060770
9189 1345 6 0.417000 120.603164 9.959517 11.962156
9190 1346 5 -0.834000 105.219729 35.697812 8.214353
9191 1346 6 0.417000 105.873624 35.865867 7.535818
9192 1346 6 0.417000 105.732350 35.522230 9.003418
9193 1347 5 -0.834000 24.513519 7.205755 11.779402
9194 1347 6 0.417000 24.493354 7.901812 11.122645
9195 1347 6 0.417000 23.652751 6.791755 11.716829
9196 1348 5 -0.834000 87.881360 15.636109 8.299570
9197 1348 6 0.417000 87.653722 15.560331 9.226215
9198 1348 6 0.417000 87.060265 15.470256 7.836398
9199 1349 5 -0.834000 99.582886 27.089479 8.284807
9200 1349 6 0.417000 99.561282 27.810313 8.914222
9201 1349 6 0.417000 99.328823 26.319269 8.793197
9202 1350 5 -0.834000 30.325882 1.446406 8.332168
9203 1350 6 0.417000 30.102200 1.562979 7.408800
9204 1350 6 0.417000 30.158426 0.519865 8.504540
9205 1351 5 -0.834000 87.970183 38.505855 8.230161
9206 1351 6 0.417000 87.366614 39.102367 8.673004
9207 1351 6 0.417000 88.794850 38.601460 8.706622
9208 1352 5 -0.834000 24.549613 18.625770 8.226370
9209 1352 6 0.417000 24.912829 18.658507 9.111375
9210 1352 6 0.417000 24.249214 19.518702 8.057063
9211 1353 5 -0.834000 108.133608 1.429285 11.657400
9212 1353 6 0.417000 108.490147 1.476944 10.770359
9213 1353 6 0.417000 108.855687 1.706143 12.221477
9214 1354 5 -0.834000 137.038334 32.946842 11.708715
9215 1354 6 0.417000 137.782954 33.516001 11.514212
9216 1354 6 0.417000 137.289011 32.489590 12.511406
9217 1355 5 -0.834000 145.727780 18.636367 11.729247
9218 1355 6 0.417000 146.471358 18.538730 12.324050
9219 1355 6 0.417000 145.273952 19.420140 12.039040
9220 1356 5 -0.834000 24.612898 30.099621 11.655340
9221 1356 6 0.417000 23.762743 30.127358 11.216367
9222 1356 6 0.417000 24.411929 30.257326 12.577822
9223 1357 5 -0.834000 73.484612 21.355440 11.816568
9224 1357 6 0.417000 74.088682 22.086191 11.948226
9225 1357 6 0.417000 72.817577 21.470548 12.493358
9226 1358 5 -0.834000 85.078667 18.572300 11.798574
9227 1358 6 0.417000 84.208665 18.622449 11.402577
9228 1358 6 0.417000 85.272671 17.635630 11.833825
9229 1359 5 -0.834000 134.117453 15.702732 11.658303
9230 1359 6 0.417000 134.693273 15.540922 10.910987
9231 1359 6 0.417000 133.734420 14.847992 11.855627
9232 1360 5 -0.834000 145.686574 27.146722 8.229540
9233 1360 6 0.417000 145.624807 26.257106 8.577391
9234 1360 6 0.417000 145.644805 27.036416 7.279634
9235 1361 5 -0.834000 12.892524 21.480868 8.266877
9236 1361 6 0.417000 12.330431 21.686694 7.519937
9237 1361 6 0.417000 12.932597 20.524608 8.280758
9238 1362 5 -0.834000 7.219042 38.476316 8.205735
9239 1362 6 0.417000 8.031402 38.465968 8.711893
9240 1362 6 0.417000 6.696054 37.765631 8.576736
9241 1363 5 -0.834000 139.960994 35.814153 11.650114
9242 1363 6 0.417000 139.868480 36.762708 11.561146
9243 1363 6 0.417000 140.894836 35.678081 11.810289
9244 1364 5 -0.834000 85.159226 32.765715 8.348475
9245 1364 6 0.417000 85.616090 32.699691 9.187014
9246 1364 6 0.417000 85.852365 32.699448 7.691665
9247 1365 5 -0.834000 10.109168 18.549253 8.189553
9248 1365 6 0.417000 9.482218 17.861991 8.415021
9249 1365 6 0.417000 10.933012 18.260833 8.582396
9250 1366 5 -0.834000 119.661442 21.489828 8.263067
9251 1366 6 0.417000 119.123721 20.766375 8.585098
9252 1366 6 0.417000 119.052958 22.040127 7.769963
9253 1367 5 -0.834000 85.109347 9.932125 11.823488
9254 1367 6 0.417000 85.093628 8.975452 11.851094
9255 1367 6 0.417000 85.803415 10.178483 12.434887
9256 1368 5 -0.834000 131.219848 21.406452 11.774627
9257 1368 6 0.417000 130.829870 20.671387 12.247733
9258 1368 6 0.417000 131.171719 22.139473 12.388302
9259 1369 5 -0.834000 145.620820 27.097358 11.719174
9260 1369 6 0.417000 145.948343 27.924000 11.364739
9261 1369 6 0.417000 146.038648 27.021744 12.577040
9262 1370 5 -0.834000 105.191587 27.132591 11.745767
9263 1370 6 0.417000 104.859645 27.987550 12.019795
9264 1370 6 0.417000 105.591599 27.293144 10.891106
9265 1371 5 -0.834000 36.129173 29.940511 11.818838
9266 1371 6 0.417000 36.636519 29.225486 11.434689
9267 1371 6 0.417000 36.503710 30.058544 12.691777
9268 1372 5 -0.834000 50.532111 1.343866 11.717065
9269 1372 6 0.417000 50.737415 0.491146 11.333723
9270 1372 6 0.417000 51.331913 1.857184 11.602812
9271 1373 5 -0.834000 18.675025 1.432847 8.150258
9272 1373 6 0.417000 18.773215 0.524414 8.435458
9273 1373 6 0.417000 18.016843 1.396678 7.456197
9274 1374 5 -0.834000 21.597311 21.474380 11.806763
9275 1374 6 0.417000 21.432577 20.533707 11.741748
9276 1374 6 0.417000 21.873802 21.607498 12.713440
9277 1375 5 -0.834000 122.656487 15.621998 8.246784
9278 1375 6 0.417000 122.498517 15.239864 9.110063
9279 1375 6 0.417000 123.298568 15.039854 7.840492
9280 1376 5 -0.834000 27.486195 35.686761 11.757552
9281 1376 6 0.417000 26.612150 35.346192 11.948050
9282 1376 6 0.417000 27.520056 35.740123 10.802440
9283 1377 5 -0.834000 56.166205 24.209768 8.276961
9284 1377 6 0.417000 56.211641 24.243551 9.232485
9285 1377 6 0.417000 56.223772 25.124658 8.001470
9286 1378 5 -0.834000 62.080949 18.586055 8.165796
9287 1378 6 0.417000 61.577169 17.921906 8.636268
9288 1378 6 0.417000 61.733162 19.419841 8.482147
9289 1379 5 -0.834000 44.749429 9.905856 11.806015
9290 1379 6 0.417000 44.406118 10.741701 11.490211
9291 1379 6 0.417000 44.273171 9.245326 11.302915
9292 1380 5 -0.834000 134.039344 7.106717 11.773908
9293 1380 6 0.417000 134.888258 6.705942 11.586944
9294 1380 6 0.417000 133.478224 6.829141 11.049804
9295 1381 5 -0.834000 10.184050 32.843074 8.245360
9296 1381 6 0.417000 10.841827 32.821958 8.940425
9297 1381 6 0.417000 9.393724 32.487739 8.651997
9298 1382 5 -0.834000 85.165158 18.605947 8.336091
9299 1382 6 0.417000 85.556368 19.064552 7.592540
9300 1382 6 0.417000 84.457167 19.180697 8.627028
9301 1383 5 -0.834000 145.751146 32.879842 8.319661
9302 1383 6 0.417000 146.657298 32.900466 8.627389
9303 1383 6 0.417000 145.386467 33.722371 8.590558
9304 1384 5 -0.834000 10.065625 27.043537 11.752475
9305 1384 6 0.417000 9.413599 27.401366 12.355014
9306 1384 6 0.417000 10.135634 27.698543 11.058000
9307 1385 5 -0.834000 39.038551 24.242913 8.254761
9308 1385 6 0.417000 39.571163 24.993729 8.517118
9309 1385 6 0.417000 39.579162 23.776136 7.617508
9310 1386 5 -0.834000 148.625300 1.496910 8.322485
9311 1386 6 0.417000 148.318166 2.364827 8.060531
9312 1386 6 0.417000 148.195216 1.333373 9.161839
9313 1387 5 -0.834000 13.041920 24.303634 8.156494
9314 1387 6 0.417000 12.956620 24.720454 9.013942
9315 1387 6 0.417000 13.829658 23.764698 8.228940
9316 1388 5 -0.834000 30.211468 4.302974 11.710284
9317 1388 6 0.417000 31.008551 4.829755 11.768523
9318 1388 6 0.417000 29.881501 4.266920 12.608089
9319 1389 5 -0.834000 62.025001 24.296212 11.779313
9320 1389 6 0.417000 61.461515 24.582798 11.060576
9321 1389 6 0.417000 62.146266 25.079382 12.316129
9322 1390 5 -0.834000 56.335304 35.787777 11.661929
9323 1390 6 0.417000 55.963776 35.062551 12.164170
9324 1390 6 0.417000 55.792113 36.541760 11.891463
9325 1391 5 -0.834000 10.078886 12.862323 8.335769
9326 1391 6 0.417000 10.798590 12.239551 8.437817
9327 1391 6 0.417000 9.939712 13.214406 9.214916
9328 1392 5 -0.834000 119.685555 32.785064 8.223716
9329 1392 6 0.417000 119.866126 33.472338 8.865027
9330 1392 6 0.417000 120.016099 31.984222 8.630688
9331 1393 5 -0.834000 67.739144 21.439493 11.751173
9332 1393 6 0.417000 67.290375 21.649245 10.932123
9333 1393 6 0.417000 67.733923 20.483078 11.789571
9334 1394 5 -0.834000 64.967926 29.959749 8.295963
9335 1394 6 0.417000 64.764905 30.352461 7.446968
9336 1394 6 0.417000 65.780665 30.385326 8.569041
9337 1395 5 -0.834000 30.355890 35.665807 8.256484
9338 1395 6 0.417000 29.937043 35.552260 9.109658
9339 1395 6 0.417000 30.137643 36.561610 7.999313
9340 1396 5 -0.834000 4.304524 1.463515 8.253478
9341 1396 6 0.417000 3.829800 1.515411 9.083042
9342 1396 6 0.417000 3.946430 2.178186 7.726937
9343 1397 5 -0.834000 50.575915 7.230490 11.720319
9344 1397 6 0.417000 51.055061 7.063694 12.532002
9345 1397 6 0.417000 51.226023 7.615522 11.132663
9346 1398 5 -0.834000 21.602473 1.406431 8.299572
9347 1398 6 0.417000 22.515326 1.577005 8.531598
9348 1398 6 0.417000 21.646368 1.005812 7.431350
9349 1399 5 -0.834000 38.977019 15.725483 8.189247
9350 1399 6 0.417000 38.939330 16.549657 8.674579
9351 1399 6 0.417000 39.912373 15.551731 8.083627
9352 1400 5 -0.834000 21.580062 35.720938 8.286714
9353 1400 6 0.417000 22.098651 35.042212 8.718719
9354 1400 6 0.417000 20.843699 35.249114 7.897633
9355 1401 5 -0.834000 111.152036 15.665009 11.686047
9356 1401 6 0.417000 111.133375 16.401338 12.297360
9357 1401 6 0.417000 112.043495 15.322352 11.750217
9358 1402 5 -0.834000 36.132133 15.788497 11.747132
9359 1402 6 0.417000 35.964619 15.946104 10.817976
9360 1402 6 0.417000 35.419335 16.239714 12.199408
9361 1403 5 -0.834000 93.817264 35.796900 8.313076
9362 1403 6 0.417000 93.120251 35.702126 8.962247
9363 1403 6 0.417000 93.911801 34.923410 7.933196
9364 1404 5 -0.834000 142.797466 35.707596 8.326312
9365 1404 6 0.417000 142.670649 34.759163 8.351283
9366 1404 6 0.417000 143.745758 35.824517 8.383794
9367 0 7 1.000000 116.903418 12.833756 8.320540
9368 0 8 -1.000000 111.130179 1.477733 8.154748
9369 0 7 1.000000 119.691766 7.194475 11.799612
9370 0 8 -1.000000 73.655098 12.822118 8.248686
9371 0 7 1.000000 139.835918 15.715925 8.169972
9372 0 8 -1.000000 87.940700 30.023360 8.215940
9373 0 7 1.000000 41.889281 29.942809 11.703146
9374 0 8 -1.000000 105.271338 21.360954 8.278021
9375 0 7 1.000000 76.504658 38.521207 8.336675
9376 0 8 -1.000000 10.118404 9.975789 11.789075
9377 0 7 1.000000 7.215090 1.439202 11.804208
9378 0 8 -1.000000 102.439511 21.495287 8.348551
9379 0 7 1.000000 7.259884 27.060671 11.811107
9380 0 8 -1.000000 79.361074 27.199445 8.334008
9381 0 7 1.000000 13.073481 4.349266 11.829074
9382 0 8 -1.000000 30.344384 7.144165 11.744961
9383 0 7 1.000000 148.526805 27.147495 8.167804
9384 0 8 -1.000000 67.777773 12.817496 8.185557
9385 0 7 1.000000 38.903375 1.443170 8.275650
9386 0 8 -1.000000 53.385327 15.644213 8.327047
9387 0 7 1.000000 90.918102 21.343322 8.271271
9388 0 8 -1.000000 56.221651 15.661272 11.733951
9389 0 7 1.000000 79.283587 24.205673 8.213594
9390 0 8 -1.000000 15.825661 7.205118 8.306081
9391 0 7 1.000000 7.122858 38.576196 11.795576
9392 0 8 -1.000000 44.730569 1.497103 8.229064
9393 0 7 1.000000 122.652063 21.411287 8.239188
9394 0 8 -1.000000 67.821262 4.354672 8.301609
9395 0 7 1.000000 96.686295 15.775362 8.203476
9396 0 8 -1.000000 128.404863 35.631658 8.279927
9397 0 7 1.000000 59.226829 10.011533 11.819368
9398 0 8 -1.000000 47.671904 1.341699 11.705029
9399 0 7 1.000000 131.324353 24.347687 8.269095
9400 0 8 -1.000000 33.134539 35.739770 8.159969
9401 0 7 1.000000 105.286470 32.805067 11.790146
9402 0 8 -1.000000 116.769463 12.803055 11.775933
9403 0 7 1.000000 59.221713 15.756837 8.183378
9404 0 8 -1.000000 96.645509 24.305947 8.336573
9405 0 7 1.000000 128.451313 35.650874 11.823533
9406 0 8 -1.000000 41.900553 35.721729 11.732636
9407 0 7 1.000000 137.058861 7.093161 8.287223
9408 0 8 -1.000000 108.127303 24.366849 8.216504
9409 0 7 1.000000 27.337023 27.179331 8.259787
9410 0 8 -1.000000 87.906029 32.826827 8.343847

Bonds

1 1 5155 5156
2 1 5155 5157
3 1 5158 5159
4 1 5158 5160
5 1 5161 5162
6 1 5161 5163
7 1 5164 5165
8 1 5164 5166
9 1 5167 5168
10 1 5167 5169
11 1 5170 5171
12 1 5170 5172
13 1 5173 5174
14 1 5173 5175
15 1 5176 5177
16 1 5176 5178
17 1 5179 5180
18 1 5179 5181
19 1 5182 5183
20 1 5182 5184
21 1 5185 5186
22 1 5185 5187
23 1 5188 5189
24 1 5188 5190
25 1 5191 5192
26 1 5191 5193
27 1 5194 5195
28 1 5194 5196
29 1 5197 5198
30 1 5197 5199
31 1 5200 5201
32 1 5200 5202
33 1 5203 5204
34 1 5203 5205
35 1 5206 5207
36 1 5206 5208
37 1 5209 5210
38 1 5209 5211
39 1 5212 5213
40 1 5212 5214
41 1 5215 5216
42 1 5215 5217
43 1 5218 5219
44 1 5218 5220
45 1 5221 5222
46 1 5221 5223
47 1 5224 5225
48 1 5224 5226
49 1 5227 5228
50 1 5227 5229
51 1 5230 5231
52 1 5230 5232
53 1 5233 5234
54 1 5233 5235
55 1 5236 5237
56 1 5236 5238
57 1 5239 5240
58 1 5239 5241
59 1 5242 5243
60 1 5242 5244
61 1 5245 5246
62 1 5245 5247
63 1 5248 5249
64 1 5248 5250
65 1 5251 5252
66 1 5251 5253
67 1 5254 5255
68 1 5254 5256
69 1 5257 5258
70 1 5257 5259
71 1 5260 5261
72 1 5260 5262
73 1 5263 5264
74 1 5263 5265
75 1 5266 5267
76 1 5266 5268
77 1 5269 5270
78 1 5269 5271
79 1 5272 5273
80 1 5272 5274
81 1 5275 5276
82 1 5275 5277
83 1 5278 5279
84 1 5278 5280
85 1 5281 5282
86 1 5281 5283
87 1 5284 5285
88 1 5284 5286
89 1 5287 5288
90 1 5287 5289
91 1 5290 5291
92 1 5290 5292
93 1 5293 5294
94 1 5293 5295
95 1 5296 5297
96 1 5296 5298
97 1 5299 5300
98 1 5299 5301
99 1 5302 5303
100 1 5302 5304
101 1 5305 5306
102 1 5305 5307
103 1 5308 5309
104 1 5308 5310
105 1 5311 5312
106 1 5311 5313
107 1 5314 5315
108 1 5314 5316
109 1 5317 5318
110 1 5317 5319
111 1 5320 5321
112 1 5320 5322
113 1 5323 5324
114 1 5323 5325
115 1 5326 5327
116 1 5326 5328
117 1 5329 5330
118 1 5329 5331
119 1 5332 5333
120 1 5332 5334
121 1 5335 5336
122 1 5335 5337
123 1 5338 5339
124 1 5338 5340
125 1 5341 5342
126 1 5341 5343
127 1 5344 5345
128 1 5344 5346
129 1 5347 5348
130 1 5347 5349
131 1 5350 5351
132 1 5350 5352
133 1 5353 5354
134 1 5353 5355
135 1 5356 5357
136 1 5356 5358
137 1 5359 5360
138 1 5359 5361
139 1 5362 5363
140 1 5362 5364
141 1 5365 5366
142 1 5365 5367
143 1 5368 5369
144 1 5368 5370
145 1 5371 5372
146 1 5371 5373
147 1 5374 5375
148 1 5374 5376
149 1 5377 5378
150 1 5377 5379
151 1 5380 5381
152 1 5380 5382
153 1 5383 5384
154 1 5383 5385
155 1 5386 5387
156 1 5386 5388
157 1 5389 5390
158 1 5389 5391
159 1 5392 5393
160 1 5392 5394
161 1 5395 5396
162 1 5395 5397
163 1 5398 5399
164 1 5398 5400
165 1 5401 5402
166 1 5401 5403
167 1 5404 5405
168 1 5404 5406
169 1 5407 5408
170 1 5407 5409
171 1 5410 5411
172 1 5410 5412
173 1 5413 5414
174 1 5413 5415
175 1 5416 5417
176 1 5416 5418
177 1 5419 5420
178 1 5419 5421
179 1 5422 5423
180 1 5422 5424
181 1 5425 5426
182 1 5425 5427
183 1 5428 5429
184 1 5428 5430
185 1 5431 5432
186 1 5431 5433
187 1 5434 5435
188 1 5434 5436
189 1 5437 5438
190 1 5437 5439
191 1 5440 5441
192 1 5440 5442
193 1 5443 5444
194 1 5443 5445
195 1 5446 5447
196 1 5446 5448
197 1 5449 5450
198 1 5449 5451
199 1 5452 5453
200 1 5452 5454
201 1 5455 5456
202 1 5455 5457
203 1 5458 5459
204 1 5458 5460
205 1 5461 5462
206 1 5461 5463
207 1 5464 5465
208 1 5464 5466
209 1 5467 5468
210 1 5467 5469
211 1 5470 5471
212 1 5470 5472
213 1 5473 5474
214 1 5473 5475
215 1 5476 5477
216 1 5476 5478
217 1 5479 5480
218 1 5479 5481
219 1 5482 5483
220 1 5482 5484
221 1 5485 5486
222 1 5485 5487
223 1 5488 5489
224 1 5488 5490
225 1 5491 5492
226 1 5491 5493
227 1 5494 5495
228 1 5494 5496
229 1 5497 5498
230 1 5497 5499
231 1 5500 5501
232 1 5500 5502
233 1 5503 5504
234 1 5503 5505
235 1 5506 5507
236 1 5506 5508
237 1 5509 5510
238 1 5509 5511
239 1 5512 5513
240 1 5512 5514
241 1 5515 5516
242 1 5515 5517
243 1 5518 5519
244 1 5518 5520
245 1 5521 5522
246 1 5521 5523
247 1 5524 5525
248 1 5524 5526
249 1 5527 5528
250 1 5527 5529
251 1 5530 5531
252 1 5530 5532
253 1 5533 5534
254 1 5533 5535
255 1 5536 5537
256 1 5536 5538
257 1 5539 5540
258 1 5539 5541
259 1 5542 5543
260 1 5542 5544
261 1 5545 5546
262 1 5545 5547
263 1 5548 5549
264 1 5548 5550
265 1 5551 5552
266 1 5551 5553
267 1 5554 5555
268 1 5554 5556
269 1 5557 5558
270 1 5557 5559
271 1 5560 5561
272 1 5560 5562
273 1 5563 5564
274 1 5563 5565
275 1 5566 5567
276 1 5566 5568
277 1 5569 5570
278 1 5569 5571
279 1 5572 5573
280 1 5572 5574
281 1 5575 5576
282 1 5575 5577
283 1 5578 5579
284 1 5578 5580
285 1 5581 5582
286 1 5581 5583
287 1 5584 5585
288 1 5584 5586
289 1 5587 5588
290 1 5587 5589
291 1 5590 5591
292 1 5590 5592
293 1 5593 5594
294 1 5593 5595
295 1 5596 5597
296 1 5596 5598
297 1 5599 5600
298 1 5599 5601
299 1 5602 5603
300 1 5602 5604
301 1 5605 5606
302 1 5605 5607
303 1 5608 5609
304 1 5608 5610
305 1 5611 5612
306 1 5611 5613
307 1 5614 5615
308 1 5614 5616
309 1 5617 5618
310 1 5617 5619
311 1 5620 5621
312 1 5620 5622
313 1 5623 5624
314 1 5623 5625
315 1 5626 5627
316 1 5626 5628
317 1 5629 5630
318 1 5629 5631
319 1 5632 5633
320 1 5632 5634
321 1 5635 5636
322 1 5635 5637
323 1 5638 5639
324 1 5638 5640
325 1 5641 5642
326 1 5641 5643
327 1 5644 5645
328 1 5644 5646
329 1 5647 5648
330 1 5647 5649
331 1 5650 5651
332 1 5650 5652
333 1 5653 5654
334 1 5653 5655
335 1 5656 5657
336 1 5656 5658
337 1 5659 5660
338 1 5659 5661
339 1 5662 5663
340 1 5662 5664
341 1 5665 5666
342 1 5665 5667
343 1 5668 5669
344 1 5668 5670
345 1 5671 5672
346 1 5671 5673
347 1 5674 5675
348 1 5674 5676
349 1 5677 5678
350 1 5677 5679
351 1 5680 5681
352 1 5680 5682
353 1 5683 5684
354 1 5683 5685
355 1 5686 5687
356 1 5686 5688
357 1 5689 5690
358 1 5689 5691
359 1 5692 5693
360 1 5692 5694
361 1 5695 5696
362 1 5695 5697
363 1 5698 5699
364 1 5698 5700
365 1 5701 5702
366 1 5701 5703
367 1 5704 5705
368 1 5704 5706
369 1 5707 5708
370 1 5707 5709
371 1 5710 5711
372 1 5710 5712
373 1 5713 5714
374 1 5713 5715
375 1 5716 5717
376 1 5716 5718
377 1 5719 5720
378 1 5719 5721
379 1 5722 5723
380 1 5722 5724
381 1 5725 5726
382 1 5725 5727
383 1 5728 5729
384 1 5728 5730
385 1 5731 5732
386 1 5731 5733
387 1 5734 5735
388 1 5734 5736
389 1 5737 5738
390 1 5737 5739
391 1 5740 5741
392 1 5740 5742
393 1 5743 5744
394 1 5743 5745
395 1 5746 5747
396 1 5746 5748
397 1 5749 5750
398 1 5749 5751
399 1 5752 5753
400 1 5752 5754
401 1 5755 5756
402 1 5755 5757
403 1 5758 5759
404 1 5758 5760
405 1 5761 5762
406 1 5761 5763
407 1 5764 5765
408 1 5764 5766
409 1 5767 5768
410 1 5767 5769
411 1 5770 5771
412 1 5770 5772
413 1 5773 5774
414 1 5773 5775
415 1 5776 5777
416 1 5776 5778
417 1 5779 5780
418 1 5779 5781
419 1 5782 5783
420 1 5782 5784
421 1 5785 5786
422 1 5785 5787
423 1 5788 5789
424 1 5788 5790
425 1 5791 5792
426 1 5791 5793
427 1 5794 5795
428 1 5794 5796
429 1 5797 5798
430 1 5797 5799
431 1 5800 5801
432 1 5800 5802
433 1 5803 5804
434 1 5803 5805
435 1 5806 5807
436 1 5806 5808
437 1 5809 5810
438 1 5809 5811
439 1 5812 5813
440 1 5812 5814
441 1 5815 5816
442 1 5815 5817
443 1 5818 5819
444 1 5818 5820
445 1 5821 5822
446 1 5821 5823
447 1 5824 5825
448 1 5824 5826
449 1 5827 5828
450 1 5827 5829
451 1 5830 5831
452 1 5830 5832
453 1 5833 5834
454 1 5833 5835
455 1 5836 5837
456 1 5836 5838
457 1 5839 5840
458 1 5839 5841
459 1 5842 5843
460 1 5842 5844
461 1 5845 5846
462 1 5845 5847
463 1 5848 5849
464 1 5848 5850
465 1 5851 5852
466 1 5851 5853
467 1 5854 5855
468 1 5854 5856
469 1 5857 5858
470 1 5857 5859
471 1 5860 5861
472 1 5860 5862
473 1 5863 5864
474 1 5863 5865
475 1 5866 5867
476 1 5866 5868
477 1 5869 5870
478 1 5869 5871
479 1 5872 5873
480 1 5872 5874
481 1 5875 5876
482 1 5875 5877
483 1 5878 5879
484 1 5878 5880
485 1 5881 5882
486 1 5881 5883
487 1 5884 5885
488 1 5884 5886
489 1 5887 5888
490 1 5887 5889
491 1 5890 5891
492 1 5890 5892
493 1 5893 5894
494 1 5893 5895
495 1 5896 5897
496 1 5896 5898
497 1 5899 5900
498 1 5899 5901
499 1 5902 5903
500 1 5902 5904
501 1 5905 5906
502 1 5905 5907
503 1 5908 5909
504 1 5908 5910
505 1 5911 5912
506 1 5911 5913
507 1 5914 5915
508 1 5914 5916
509 1 5917 5918
510 1 5917 5919
511 1 5920 5921
512 1 5920 5922
513 1 5923 5924
514 1 5923 5925
515 1 5926 5927
516 1 5926 5928
517 1 5929 5930
518 1 5929 5931
519 1 5932 5933
520 1 5932 5934
521 1 5935 5936
522 1 5935 5937
523 1 5938 5939
524 1 5938 5940
525 1 5941 5942
526 1 5941 5943
527 1 5944 5945
528 1 5944 5946
529 1 5947 5948
530 1 5947 5949
531 1 5950 5951
532 1 5950 5952
533 1 5953 5954
534 1 5953 5955
535 1 5956 5957
536 1 5956 5958
537 1 5959 5960
538 1 5959 5961
539 1 5962 5963
540 1 5962 5964
541 1 5965 5966
542 1 5965 5967
543 1 5968 5969
544 1 5968 5970
545 1 5971 5972
546 1 5971 5973
547 1 5974 5975
548 1 5974 5976
549 1 5977 5978
550 1 5977 5979
551 1 5980 5981
552 1 5980 5982
553 1 5983 5984
554 1 5983 5985
555 1 5986 5987
556 1 5986 5988
557 1 5989 5990
558 1 5989 5991
559 1 5992 5993
560 1 5992 5994
561 1 5995 5996
562 1 5995 5997
563 1 5998 5999
564 1 5998 6000
565 1 6001 6002
566 1 6001 6003
567 1 6004 6005
568 1 6004 6006
569 1 6007 6008
570 1 6007 6009
571 1 6010 6011
572 1 6010 6012
573 1 6013 6014
574 1 6013 6015
575 1 6016 6017
576 1 6016 6018
577 1 6019 6020
578 1 6019 6021
579 1 6022 6023
580 1 6022 6024
581 1 6025 6026
582 1 6025 6027
583 1 6028 6029
584 1 6028 6030
585 1 6031 6032
586 1 6031 6033
587 1 6034 6035
588 1 6034 6036
589 1 6037 6038
590 1 6037 6039
591 1 6040 6041
592 1 6040 6042
593 1 6043 6044
594 1 6043 6045
595 1 6046 6047
596 1 6046 6048
597 1 6049 6050
598 1 6049 6051
599 1 6052 6053
600 1 6052 6054
601 1 6055 6056
602 1 6055 6057
603 1 6058 6059
604 1 6058 6060
605 1 6061 6062
606 1 6061 6063
607 1 6064 6065
608 1 6064 6066
609 1 6067 6068
610 1 6067 6069
611 1 6070 6071
612 1 6070 6072
613 1 6073 6074
614 1 6073 6075
615 1 6076 6077
616 1 6076 6078
617 1 6079 6080
618 1 6079 6081
619 1 6082 6083
620 1 6082 6084
621 1 6085 6086
622 1 6085 6087
623 1 6088 6089
624 1 6088 6090
625 1 6091 6092
626 1 6091 6093
627 1 6094 6095
628 1 6094 6096
629 1 6097 6098
630 1 6097 6099
631 1 6100 6101
632 1 6100 6102
633 1 6103 6104
634 1 6103 6105
635 1 6106 6107
636 1 6106 6108
637 1 6109 6110
638 1 6109 6111
639 1 6112 6113
640 1 6112 6114
641 1 6115 6116
642 1 6115 6117
643 1 6118 6119
644 1 6118 6120
645 1 6121 6122
646 1 6121 6123
647 1 6124 6125
648 1 6124 6126
649 1 6127 6128
650 1 6127 6129
651 1 6130 6131
652 1 6130 6132
653 1 6133 6134
654 1 6133 6135
655 1 6136 6137
656 1 6136 6138
657 1 6139 6140
658 1 6139 6141
659 1 6142 6143
660 1 6142 6144
661 1 6145 6146
662 1 6145 6147
663 1 6148 6149
664 1 6148 6150
665 1 6151 6152
666 1 6151 6153
667 1 6154 6155
668 1 6154 6156
669 1 6157 6158
670 1 6157 6159
671 1 6160 6161
672 1 6160 6162
673 1 6163 6164
674 1 6163 6165
675 1 6166 6167
676 1 6166 6168
677 1 6169 6170
678 1 6169 6171
679 1 6172 6173
680 1 6172 6174
681 1 6175 6176
682 1 6175 6177
683 1 6178 6179
684 1 6178 6180
685 1 6181 6182
686 1 6181 6183
687 1 6184 6185
688 1 6184 6186
689 1 6187 6188
690 1 6187 6189
691 1 6190 6191
692 1 6190 6192
693 1 6193 6194
694 1 6193 6195
695 1 6196 6197
696 1 6196 6198
697 1 6199 6200
698 1 6199 6201
699 1 6202 6203
700 1 6202 6204
701 1 6205 6206
702 1 6205 6207
703 1 6208 6209
704 1 6208 6210
705 1 6211 6212
706 1 6211 6213
707 1 6214 6215
708 1 6214 6216
709 1 6217 6218
710 1 6217 6219
711 1 6220 6221
712 1 6220 6222
713 1 6223 6224
714 1 6223 6225
715 1 6226 6227
716 1 6226 6228
717 1 6229 6230
718 1 6229 6231
719 1 6232 6233
720 1 6232 6234
721 1 6235 6236
722 1 6235 6237
723 1 6238 6239
724 1 6238 6240
725 1 6241 6242
726 1 6241 6243
727 1 6244 6245
728 1 6244 6246
729 1 6247 6248
730 1 6247 6249
731 1 6250 6251
732 1 6250 6252
733 1 6253 6254
734 1 6253 6255
735 1 6256 6257
736 1 6256 6258
737 1 6259 6260
738 1 6259 6261
739 1 6262 6263
740 1 6262 6264
741 1 6265 6266
742 1 6265 6267
743 1 6268 6269
744 1 6268 6270
745 1 6271 6272
746 1 6271 6273
747 1 6274 6275
748 1 6274 6276
749 1 6277 6278
750 1 6277 6279
751 1 6280 6281
752 1 6280 6282
753 1 6283 6284
754 1 6283 6285
755 1 6286 6287
756 1 6286 6288
757 1 6289 6290
758 1 6289 6291
759 1 6292 6293
760 1 6292 6294
761 1 6295 6296
762 1 6295 6297
763 1 6298 6299
764 1 6298 6300
765 1 6301 6302
766 1 6301 6303
767 1 6304 6305
768 1 6304 6306
769 1 6307 6308
770 1 6307 6309
771 1 6310 6311
772 1 6310 6312
773 1 6313 6314
774 1 6313 6315
775 1 6316 6317
776 1 6316 6318
777 1 6319 6320
778 1 6319 6321
779 1 6322 6323
780 1 6322 6324
781 1 6325 6326
782 1 6325 6327
783 1 6328 6329
784 1 6328 6330
785 1 6331 6332
786 1 6331 6333
787 1 6334 6335
788 1 6334 6336
789 1 6337 6338
790 1 6337 6339
791 1 6340 6341
792 1 6340 6342
793 1 6343 6344
794 1 6343 6345
795 1 6346 6347
796 1 6346 6348
797 1 6349 6350
798 1 6349 6351
799 1 6352 6353
800 1 6352 6354
801 1 6355 6356
802 1 6355 6357
803 1 6358 6359
804 1 6358 6360
805 1 6361 6362
806 1 6361 6363
807 1 6364 6365
808 1 6364 6366
809 1 6367 6368
810 1 6367 6369
811 1 6370 6371
812 1 6370 6372
813 1 6373 6374
814 1 6373 6375
815 1 6376 6377
816 1 6376 6378
817 1 6379 6380
818 1 6379 6381
819 1 6382 6383
820 1 6382 6384
821 1 6385 6386
822 1 6385 6387
823 1 6388 6389
824 1 6388 6390
825 1 6391 6392
826 1 6391 6393
827 1 6394 6395
828 1 6394 6396
829 1 6397 6398
830 1 6397 6399
831 1 6400 6401
832 1 6400 6402
833 1 6403 6404
834 1 6403 6405
835 1 6406 6407
836 1 6406 6408
837 1 6409 6410
838 1 6409 6411
839 1 6412 6413
840 1 6412 6414
841 1 6415 6416
842 1 6415 6417
843 1 6418 6419
844 1 6418 6420
845 1 6421 6422
846 1 6421 6423
847 1 6424 6425
848 1 6424 6426
849 1 6427 6428
850 1 6427 6429
851 1 6430 6431
852 1 6430 6432
853 1 6433 6434
854 1 6433 6435
855 1 6436 6437
856 1 6436 6438
857 1 6439 6440
858 1 6439 6441
859 1 6442 6443
860 1 6442 6444
861 1 6445 6446
862 1 6445 6447
863 1 6448 6449
864 1 6448 6450
865 1 6451 6452
866 1 6451 6453
867 1 6454 6455
868 1 6454 6456
869 1 6457 6458
870 1 6457 6459
871 1 6460 6461
872 1 6460 6462
873 1 6463 6464
874 1 6463 6465
875 1 6466 6467
876 1 6466 6468
877 1 6469 6470
878 1 6469 6471
879 1 6472 6473
880 1 6472 6474
881 1 6475 6476
882 1 6475 6477
883 1 6478 6479
884 1 6478 6480
885 1 6481 6482
886 1 6481 6483
887 1 6484 6485
888 1 6484 6486
889 1 6487 6488
890 1 6487 6489
891 1 6490 6491
892 1 6490 6492
893 1 6493 6494
894 1 6493 6495
895 1 6496 6497
896 1 6496 6498
897 1 6499 6500
898 1 6499 6501
899 1 6502 6503
900 1 6502 6504
901 1 6505 6506
902 1 6505 6507
903 1 6508 6509
904 1 6508 6510
905 1 6511 6512
906 1 6511 6513
907 1 6514 6515
908 1 6514 6516
909 1 6517 6518
910 1 6517 6519
911 1 6520 6521
912 1 6520 6522
913 1 6523 6524
914 1 6523 6525
915 1 6526 6527
916 1 6526 6528
917 1 6529 6530
918 1 6529 6531
919 1 6532 6533
920 1 6532 6534
921 1 6535 6536
922 1 6535 6537
923 1 6538 6539
924 1 6538 6540
925 1 6541 6542
926 1 6541 6543
927 1 6544 6545
928 1 6544 6546
929 1 6547 6548
930 1 6547 6549
931 1 6550 6551
932 1 6550 6552
933 1 6553 6554
934 1 6553 6555
935 1 6556 6557
936 1 6556 6558
937 1 6559 6560
938 1 6559 6561
939 1 6562 6563
940 1 6562 6564
941 1 6565 6566
942 1 6565 6567
943 1 6568 6569
944 1 6568 6570
945 1 6571 6572
946 1 6571 6573
947 1 6574 6575
948 1 6574 6576
949 1 6577 6578
950 1 6577 6579
951 1 6580 6581
952 1 6580 6582
953 1 6583 6584
954 1 6583 6585
955 1 6586 6587
956 1 6586 6588
957 1 6589 6590
958 1 6589 6591
959 1 6592 6593
960 1 6592 6594
961 1 6595 6596
962 1 6595 6597
963 1 6598 6599
964 1 6598 6600
965 1 6601 6602
966 1 6601 6603
967 1 6604 6605
968 1 6604 6606
969 1 6607 6608
970 1 6607 6609
971 1 6610 6611
972 1 6610 6612
973 1 6613 6614
974 1 6613 6615
975 1 6616 6617
976 1 6616 6618
977 1 6619 6620
978 1 6619 6621
979 1 6622 6623
980 1 6622 6624
981 1 6625 6626
982 1 6625 6627
983 1 6628 6629
984 1 6628 6630
985 1 6631 6632
986 1 6631 6633
987 1 6634 6635
988 1 6634 6636
989 1 6637 6638
990 1 6637 6639
991 1 6640 6641
992 1 6640 6642
993 1 6643 6644
994 1 6643 6645
995 1 6646 6647
996 1 6646 6648
997 1 6649 6650
998 1 6649 6651
999 1 6652 6653
1000 1 6652 6654
1001 1 6655 6656
1002 1 6655 6657
1003 1 6658 6659
1004 1 6658 6660
1005 1 6661 6662
1006 1 6661 6663
1007 1 6664 6665
1008 1 6664 6666
1009 1 6667 6668
1010 1 6667 6669
1011 1 6670 6671
1012 1 6670 6672
1013 1 6673 6674
1014 1 6673 6675
1015 1 6676 6677
1016 1 6676 6678
1017 1 6679 6680
1018 1 6679 6681
1019 1 6682 6683
1020 1 6682 6684
1021 1 6685 6686
1022 1 6685 6687
1023 1 6688 6689
1024 1 6688 6690
1025 1 6691 6692
1026 1 6691 6693
1027 1 6694 6695
1028 1 6694 6696
1029 1 6697 6698
1030 1 6697 6699
1031 1 6700 6701
1032 1 6700 6702
1033 1 6703 6704
1034 1 6703 6705
1035 1 6706 6707
1036 1 6706 6708
1037 1 6709 6710
1038 1 6709 6711
1039 1 6712 6713
1040 1 6712 6714
1041 1 6715 6716
1042 1 6715 6717
1043 1 6718 6719
1044 1 6718 6720
1045 1 6721 6722
1046 1 6721 6723
1047 1 6724 6725
1048 1 6724 6726
1049 1 6727 6728
1050 1 6727 6729
1051 1 6730 6731
1052 1 6730 6732
1053 1 6733 6734
1054 1 6733 6735
1055 1 6736 6737
1056 1 6736 6738
1057 1 6739 6740
1058 1 6739 6741
1059 1 6742 6743
1060 1 6742 6744
1061 1 6745 6746
1062 1 6745 6747
1063 1 6748 6749
1064 1 6748 6750
1065 1 6751 6752
1066 1 6751 6753
1067 1 6754 6755
1068 1 6754 6756
1069 1 6757 6758
1070 1 6757 6759
1071 1 6760 6761
1072 1 6760 6762
1073 1 6763 6764
1074 1 6763 6765
1075 1 6766 6767
1076 1 6766 6768
1077 1 6769 6770
1078 1 6769 6771
1079 1 6772 6773
1080 1 6772 6774
1081 1 6775 6776
1082 1 6775 6777
1083 1 6778 6779
1084 1 6778 6780
1085 1 6781 6782
1086 1 6781 6783
1087 1 6784 6785
1088 1 6784 6786
1089 1 6787 6788
1090 1 6787 6789
1091 1 6790 6791
1092 1 6790 6792
1093 1 6793 6794
1094 1 6793 6795
1095 1 6796 6797
1096 1 6796 6798
1097 1 6799 6800
1098 1 6799 6801
1099 1 6802 6803
1100 1 6802 6804
1101 1 6805 6806
1102 1 6805 6807
1103 1 6808 6809
1104 1 6808 6810
1105 1 6811 6812
1106 1 6811 6813
1107 1 6814 6815
1108 1 6814 6816
1109 1 6817 6818
1110 1 6817 6819
1111 1 6820 6821
1112 1 6820 6822
1113 1 6823 6824
1114 1 6823 6825
1115 1 6826 6827
1116 1 6826 6828
1117 1 6829 6830
1118 1 6829 6831
1119 1 6832 6833
1120 1 6832 6834
1121 1 6835 6836
1122 1 6835 6837
1123 1 6838 6839
1124 1 6838 6840
1125 1 6841 6842
1126 1 6841 6843
1127 1 6844 6845
1128 1 6844 6846
1129 1 6847 6848
1130 1 6847 6849
1131 1 6850 6851
1132 1 6850 6852
1133 1 6853 6854
1134 1 6853 6855
1135 1 6856 6857
1136 1 6856 6858
1137 1 6859 6860
1138 1 6859 6861
1139 1 6862 6863
1140 1 6862 6864
1141 1 6865 6866
1142 1 6865 6867
1143 1 6868 6869
1144 1 6868 6870
1145 1 6871 6872
1146 1 6871 6873
1147 1 6874 6875
1148 1 6874 6876
1149 1 6877 6878
1150 1 6877 6879
1151 1 6880 6881
1152 1 6880 6882
1153 1 6883 6884
1154 1 6883 6885
1155 1 6886 6887
1156 1 6886 6888
1157 1 6889 6890
1158 1 6889 6891
1159 1 6892 6893
1160 1 6892 6894
1161 1 6895 6896
1162 1 6895 6897
1163 1 6898 6899
1164 1 6898 6900
1165 1 6901 6902
1166 1 6901 6903
1167 1 6904 6905
1168 1 6904 6906
1169 1 6907 6908
1170 1 6907 6909
1171 1 6910 6911
1172 1 6910 6912
1173 1 6913 6914
1174 1 6913 6915
1175 1 6916 6917
1176 1 6916 6918
1177 1 6919 6920
1178 1 6919 6921
1179 1 6922 6923
1180 1 6922 6924
1181 1 6925 6926
1182 1 6925 6927
1183 1 6928 6929
1184 1 6928 6930
1185 1 6931 6932
1186 1 6931 6933
1187 1 6934 6935
1188 1 6934 6936
1189 1 6937 6938
1190 1 6937 6939
1191 1 6940 6941
1192 1 6940 6942
1193 1 6943 6944
1194 1 6943 6945
1195 1 6946 6947
1196 1 6946 6948
1197 1 6949 6950
1198 1 6949 6951
1199 1 6952 6953
1200 1 6952 6954
1201 1 6955 6956
1202 1 6955 6957
1203 1 6958 6959
1204 1 6958 6960
1205 1 6961 6962
1206 1 6961 6963
1207 1 6964 6965
1208 1 6964 6966
1209 1 6967 6968
1210 1 6967 6969
1211 1 6970 6971
1212 1 6970 6972
1213 1 6973 6974
1214 1 6973 6975
1215 1 6976 6977
1216 1 6976 6978
1217 1 6979 6980
1218 1 6979 6981
1219 1 6982 6983
1220 1 6982 6984
1221 1 6985 6986
1222 1 6985 6987
1223 1 6988 6989
1224 1 6988 6990
1225 1 6991 6992
1226 1 6991 6993
1227 1 6994 6995
1228 1 6994 6996
1229 1 6997 6998
1230 1 6997 6999
1231 1 7000 7001
1232 1 7000 7002
1233 1 7003 7004
1234 1 7003 7005
1235 1 7006 7007
1236 1 7006 7008
1237 1 7009 7010
1238 1 7009 7011
1239 1 7012 7013
1240 1 7012 7014
1241 1 7015 7016
1242 1 7015 7017
1243 1 7018 7019
1244 1 7018 7020
1245 1 7021 7022
1246 1 7021 7023
1247 1 7024 7025
1248 1 7024 7026
1249 1 7027 7028
1250 1 7027 7029
1251 1 7030 7031
1252 1 7030 7032
1253 1 7033 7034
1254 1 7033 7035
1255 1 7036 7037
1256 1 7036 7038
1257 1 7039 7040
1258 1 7039 7041
1259 1 7042 7043
1260 1 7042 7044
1261 1 7045 7046
1262 1 7045 7047
1263 1 7048 7049
1264 1 7048 7050
1265 1 7051 7052
1266 1 7051 7053
1267 1 7054 7055
1268 1 7054 7056
1269 1 7057 7058
1270 1 7057 7059
1271 1 7060 7061
1272 1 7060 7062
1273 1 7063 7064
1274 1 7063 7065
1275 1 7066 7067
1276 1 7066 7068
1277 1 7069 7070
1278 1 7069 7071
1279 1 7072 7073
1280 1 7072 7074
1281 1 7075 7076
1282 1 7075 7077
1283 1 7078 7079
1284 1 7078 7080
1285 1 7081 7082
1286 1 7081 7083
1287 1 7084 7085
1288 1 7084 7086
1289 1 7087 7088
1290 1 7087 7089
1291 1 7090 7091
1292 1 7090 7092
1293 1 7093 7094
1294 1 7093 7095
1295 1 7096 7097
1296 1 7096 7098
1297 1 7099 7100
1298 1 7099 7101
1299 1 7102 7103
1300 1 7102 7104
1301 1 7105 7106
1302 1 7105 7107
1303 1 7108 7109
1304 1 7108 7110
1305 1 7111 7112
1306 1 7111 7113
1307 1 7114 7115
1308 1 7114 7116
1309 1 7117 7118
1310 1 7117 7119
1311 1 7120 7121
1312 1 7120 7122
1313 1 7123 7124
1314 1 7123 7125
1315 1 7126 7127
1316 1 7126 7128
1317 1 7129 7130
1318 1 7129 7131
1319 1 7132 7133
1320 1 7132 7134
1321 1 7135 7136
1322 1 7135 7137
1323 1 7138 7139
1324 1 7138 7140
1325 1 7141 7142
1326 1 7141 7143
1327 1 7144 7145
1328 1 7144 7146
1329 1 7147 7148
1330 1 7147 7149
1331 1 7150 7151
1332 1 7150 7152
1333 1 7153 7154
1334 1 7153 7155
1335 1 7156 7157
1336 1 7156 7158
1337 1 7159 7160
1338 1 7159 7161
1339 1 7162 7163
1340 1 7162 7164
1341 1 7165 7166
1342 1 7165 7167
1343 1 7168 7169
1344 1 7168 7170
1345 1 7171 7172
1346 1 7171 7173
1347 1 7174 7175
1348 1 7174 7176
1349 1 7177 7178
1350 1 7177 7179
1351 1 7180 7181
1352 1 7180 7182
1353 1 7183 7184
1354 1 7183 7185
1355 1 7186 7187
1356 1 7186 7188
1357 1 7189 7190
1358 1 7189 7191
1359 1 7192 7193
1360 1 7192 7194
1361 1 7195 7196
1362 1 7195 7197
1363 1 7198 7199
1364 1 7198 7200
1365 1 7201 7202
1366 1 7201 7203
1367 1 7204 7205
1368 1 7204 7206
1369 1 7207 7208
1370 1 7207 7209
1371 1 7210 7211
1372 1 7210 7212
1373 1 7213 7214
1374 1 7213 7215
1375 1 7216 7217
1376 1 7216 7218
1377 1 7219 7220
1378 1 7219 7221
1379 1 7222 7223
1380 1 7222 7224
1381 1 7225 7226
1382 1 7225 7227
1383 1 7228 7229
1384 1 7228 7230
1385 1 7231 7232
1386 1 7231 7233
1387 1 7234 7235
1388 1 7234 7236
1389 1 7237 7238
1390 1 7237 7239
1391 1 7240 7241
1392 1 7240 7242
1393 1 7243 7244
1394 1 7243 7245
1395 1 7246 7247
1396 1 7246 7248
1397 1 7249 7250
1398 1 7249 7251
1399 1 7252 7253
1400 1 7252 7254
1401 1 7255 7256
1402 1 7255 7257
1403 1 7258 7259
1404 1 7258 7260
1405 1 7261 7262
1406 1 7261 7263
1407 1 7264 7265
1408 1 7264 7266
1409 1 7267 7268
1410 1 7267 7269
1411 1 7270 7271
1412 1 7270 7272
1413 1 7273 7274
1414 1 7273 7275
1415 1 7276 7277
1416 1 7276 7278
1417 1 7279 7280
1418 1 7279 7281
1419 1 7282 7283
1420 1 7282 7284
1421 1 7285 7286
1422 1 7285 7287
1423 1 7288 7289
1424 1 7288 7290
1425 1 7291 7292
1426 1 7291 7293
1427 1 7294 7295
1428 1 7294 7296
1429 1 7297 7298
1430 1 7297 7299
1431 1 7300 7301
1432 1 7300 7302
1433 1 7303 7304
1434 1 7303 7305
1435 1 7306 7307
1436 1 7306 7308
1437 1 7309 7310
1438 1 7309 7311
1439 1 7312 7313
1440 1 7312 7314
1441 1 7315 7316
1442 1 7315 7317
1443 1 7318 7319
1444 1 7318 7320
1445 1 7321 7322
1446 1 7321 7323
1447 1 7324 7325
1448 1 7324 7326
1449 1 7327 7328
1450 1 7327 7329
1451 1 7330 7331
1452 1 7330 7332
1453 1 7333 7334
1454 1 7333 7335
1455 1 7336 7337
1456 1 7336 7338
1457 1 7339 7340
1458 1 7339 7341
1459 1 7342 7343
1460 1 7342 7344
1461 1 7345 7346
1462 1 7345 7347
1463 1 7348 7349
1464 1 7348 7350
1465 1 7351 7352
1466 1 7351 7353
1467 1 7354 7355
1468 1 7354 7356
1469 1 7357 7358
1470 1 7357 7359
1471 1 7360 7361
1472 1 7360 7362
1473 1 7363 7364
1474 1 7363 7365
1475 1 7366 7367
1476 1 7366 7368
1477 1 7369 7370
1478 1 7369 7371
1479 1 7372 7373
1480 1 7372 7374
1481 1 7375 7376
1482 1 7375 7377
1483 1 7378 7379
1484 1 7378 7380
1485 1 7381 7382
1486 1 7381 7383
1487 1 7384 7385
1488 1 7384 7386
1489 1 7387 7388
1490 1 7387 7389
1491 1 7390 7391
1492 1 7390 7392
1493 1 7393 7394
1494 1 7393 7395
1495 1 7396 7397
1496 1 7396 7398
1497 1 7399 7400
1498 1 7399 7401
1499 1 7402 7403
1500 1 7402 7404
1501 1 7405 7406
1502 1 7405 7407
1503 1 7408 7409
1504 1 7408 7410
1505 1 7411 7412
1506 1 7411 7413
1507 1 7414 7415
1508 1 7414 7416
1509 1 7417 7418
1510 1 7417 7419
1511 1 7420 7421
1512 1 7420 7422
1513 1 7423 7424
1514 1 7423 7425
1515 1 7426 7427
1516 1 7426 7428
1517 1 7429 7430
1518 1 7429 7431
1519 1 7432 7433
1520 1 7432 7434
1521 1 7435 7436
1522 1 7435 7437
1523 1 7438 7439
1524 1 7438 7440
1525 1 7441 7442
1526 1 7441 7443
1527 1 7444 7445
1528 1 7444 7446
1529 1 7447 7448
1530 1 7447 7449
1531 1 7450 7451
1532 1 7450 7452
1533 1 7453 7454
1534 1 7453 7455
1535 1 7456 7457
1536 1 7456 7458
1537 1 7459 7460
1538 1 7459 7461
1539 1 7462 7463
1540 1 7462 7464
1541 1 7465 7466
1542 1 7465 7467
1543 1 7468 7469
1544 1 7468 7470
1545 1 7471 7472
1546 1 7471 7473
1547 1 7474 7475
1548 1 7474 7476
1549 1 7477 7478
1550 1 7477 7479
1551 1 7480 7481
1552 1 7480 7482
1553 1 7483 7484
1554 1 7483 7485
1555 1 7486 7487
1556 1 7486 7488
1557 1 7489 7490
1558 1 7489 7491
1559 1 7492 7493
1560 1 7492 7494
1561 1 7495 7496
1562 1 7495 7497
1563 1 7498 7499
1564 1 7498 7500
1565 1 7501 7502
1566 1 7501 7503
1567 1 7504 7505
1568 1 7504 7506
1569 1 7507 7508
1570 1 7507 7509
1571 1 7510 7511
1572 1 7510 7512
1573 1 7513 7514
1574 1 7513 7515
1575 1 7516 7517
1576 1 7516 7518
1577 1 7519 7520
1578 1 7519 7521
1579 1 7522 7523
1580 1 7522 7524
1581 1 7525 7526
1582 1 7525 7527
1583 1 7528 7529
1584 1 7528 7530
1585 1 7531 7532
1586 1 7531 7533
1587 1 7534 7535
1588 1 7534 7536
1589 1 7537 7538
1590 1 7537 7539
1591 1 7540 7541
1592 1 7540 7542
1593 1 7543 7544
1594 1 7543 7545
1595 1 7546 7547
1596 1 7546 7548
1597 1 7549 7550
1598 1 7549 7551
1599 1 7552 7553
1600 1 7552 7554
1601 1 7555 7556
1602 1 7555 7557
1603 1 7558 7559
1604 1 7558 7560
1605 1 7561 7562
1606 1 7561 7563
1607 1 7564 7565
1608 1 7564 7566
1609 1 7567 7568
1610 1 7567 7569
1611 1 7570 7571
1612 1 7570 7572
1613 1 7573 7574
1614 1 7573 7575
1615 1 7576 7577
1616 1 7576 7578
1617 1 7579 7580
1618 1 7579 7581
1619 1 7582 7583
1620 1 7582 7584
1621 1 7585 7586
1622 1 7585 7587
1623 1 7588 7589
1624 1 7588 7590
1625 1 7591 7592
1626 1 7591 7593
1627 1 7594 7595
1628 1 7594 7596
1629 1 7597 7598
1630 1 7597 7599
1631 1 7600 7601
1632 1 7600 7602
1633 1 7603 7604
1634 1 7603 7605
1635 1 7606 7607
1636 1 7606 7608
1637 1 7609 7610
1638 1 7609 7611
1639 1 7612 7613
1640 1 7612 7614
1641 1 7615 7616
1642 1 7615 7617
1643 1 7618 7619
1644 1 7618 7620
1645 1 7621 7622
1646 1 7621 7623
1647 1 7624 7625
1648 1 7624 7626
1649 1 7627 7628
1650 1 7627 7629
1651 1 7630 7631
1652 1 7630 7632
1653 1 7633 7634
1654 1 7633 7635
1655 1 7636 7637
1656 1 7636 7638
1657 1 7639 7640
1658 1 7639 7641
1659 1 7642 7643
1660 1 7642 7644
1661 1 7645 7646
1662 1 7645 7647
1663 1 7648 7649
1664 1 7648 7650
1665 1 7651 7652
1666 1 7651 7653
1667 1 7654 7655
1668 1 7654 7656
1669 1 7657 7658
1670 1 7657 7659
1671 1 7660 7661
1672 1 7660 7662
1673 1 7663 7664
1674 1 7663 7665
1675 1 7666 7667
1676 1 7666 7668
1677 1 7669 7670
1678 1 7669 7671
1679 1 7672 7673
1680 1 7672 7674
1681 1 7675 7676
1682 1 7675 7677
1683 1 7678 7679
1684 1 7678 7680
1685 1 7681 7682
1686 1 7681 7683
1687 1 7684 7685
1688 1 7684 7686
1689 1 7687 7688
1690 1 7687 7689
1691 1 7690 7691
1692 1 7690 7692
1693 1 7693 7694
1694 1 7693 7695
1695 1 7696 7697
1696 1 7696 7698
1697 1 7699 7700
1698 1 7699 7701
1699 1 7702 7703
1700 1 7702 7704
1701 1 7705 7706
1702 1 7705 7707
1703 1 7708 7709
1704 1 7708 7710
1705 1 7711 7712
1706 1 7711 7713
1707 1 7714 7715
1708 1 7714 7716
1709 1 7717 7718
1710 1 7717 7719
1711 1 7720 7721
1712 1 7720 7722
1713 1 7723 7724
1714 1 7723 7725
1715 1 7726 7727
1716 1 7726 7728
1717 1 7729 7730
1718 1 7729 7731
1719 1 7732 7733
1720 1 7732 7734
1721 1 7735 7736
1722 1 7735 7737
1723 1 7738 7739
1724 1 7738 7740
1725 1 7741 7742
1726 1 7741 7743
1727 1 7744 7745
1728 1 7744 7746
1729 1 7747 7748
1730 1 7747 7749
1731 1 7750 7751
1732 1 7750 7752
1733 1 7753 7754
1734 1 7753 7755
1735 1 7756 7757
1736 1 7756 7758
1737 1 7759 7760
1738 1 7759 7761
1739 1 7762 7763
1740 1 7762 7764
1741 1 7765 7766
1742 1 7765 7767
1743 1 7768 7769
1744 1 7768 7770
1745 1 7771 7772
1746 1 7771 7773
1747 1 7774 7775
1748 1 7774 7776
1749 1 7777 7778
1750 1 7777 7779
1751 1 7780 7781
1752 1 7780 7782
1753 1 7783 7784
1754 1 7783 7785
1755 1 7786 7787
1756 1 7786 7788
1757 1 7789 7790
1758 1 7789 7791
1759 1 7792 7793
1760 1 7792 7794
1761 1 7795 7796
1762 1 7795 7797
1763 1 7798 7799
1764 1 7798 7800
1765 1 7801 7802
1766 1 7801 7803
1767 1 7804 7805
1768 1 7804 7806
1769 1 7807 7808
1770 1 7807 7809
1771 1 7810 7811
1772 1 7810 7812
1773 1 7813 7814
1774 1 7813 7815
1775 1 7816 7817
1776 1 7816 7818
1777 1 7819 7820
1778 1 7819 7821
1779 1 7822 7823
1780 1 7822 7824
1781 1 7825 7826
1782 1 7825 7827
1783 1 7828 7829
1784 1 7828 7830
1785 1 7831 7832
1786 1 7831 7833
1787 1 7834 7835
1788 1 7834 7836
1789 1 7837 7838
1790 1 7837 7839
1791 1 7840 7841
1792 1 7840 7842
1793 1 7843 7844
1794 1 7843 7845
1795 1 7846 7847
1796 1 7846 7848
1797 1 7849 7850
1798 1 7849 7851
1799 1 7852 7853
1800 1 7852 7854
1801 1 7855 7856
1802 1 7855 7857
1803 1 7858 7859
1804 1 7858 7860
1805 1 7861 7862
1806 1 7861 7863
1807 1 7864 7865
1808 1 7864 7866
1809 1 7867 7868
1810 1 7867 7869
1811 1 7870 7871
1812 1 7870 7872
1813 1 7873 7874
1814 1 7873 7875
1815 1 7876 7877
1816 1 7876 7878
1817 1 7879 7880
1818 1 7879 7881
1819 1 7882 7883
1820 1 7882 7884
1821 1 7885 7886
1822 1 7885 7887
1823 1 7888 7889
1824 1 7888 7890
1825 1 7891 7892
1826 1 7891 7893
1827 1 7894 7895
1828 1 7894 7896
1829 1 7897 7898
1830 1 7897 7899
1831 1 7900 7901
1832 1 7900 7902
1833 1 7903 7904
1834 1 7903 7905
1835 1 7906 7907
1836 1 7906 7908
1837 1 7909 7910
1838 1 7909 7911
1839 1 7912 7913
1840 1 7912 7914
1841 1 7915 7916
1842 1 7915 7917
1843 1 7918 7919
1844 1 7918 7920
1845 1 7921 7922
1846 1 7921 7923
1847 1 7924 7925
1848 1 7924 7926
1849 1 7927 7928
1850 1 7927 7929
1851 1 7930 7931
1852 1 7930 7932
1853 1 7933 7934
1854 1 7933 7935
1855 1 7936 7937
1856 1 7936 7938
1857 1 7939 7940
1858 1 7939 7941
1859 1 7942 7943
1860 1 7942 7944
1861 1 7945 7946
1862 1 7945 7947
1863 1 7948 7949
1864 1 7948 7950
1865 1 7951 7952
1866 1 7951 7953
1867 1 7954 7955
1868 1 7954 7956
1869 1 7957 7958
1870 1 7957 7959
1871 1 7960 7961
1872 1 7960 7962
1873 1 7963 7964
1874 1 7963 7965
1875 1 7966 7967
1876 1 7966 7968
1877 1 7969 7970
1878 1 7969 7971
1879 1 7972 7973
1880 1 7972 7974
1881 1 7975 7976
1882 1 7975 7977
1883 1 7978 7979
1884 1 7978 7980
1885 1 7981 7982
1886 1 7981 7983
1887 1 7984 7985
1888 1 7984 7986
1889 1 7987 7988
1890 1 7987 7989
1891 1 7990 7991
1892 1 7990 7992
1893 1 7993 7994
1894 1 7993 7995
1895 1 7996 7997
1896 1 7996 7998
1897 1 7999 8000
1898 1 7999 8001
1899 1 8002 8003
1900 1 8002 8004
1901 1 8005 8006
1902 1 8005 8007
1903 1 8008 8009
1904 1 8008 8010
1905 1 8011 8012
1906 1 8011 8013
1907 1 8014 8015
1908 1 8014 8016
1909 1 8017 8018
1910 1 8017 8019
1911 1 8020 8021
1912 1 8020 8022
1913 1 8023 8024
1914 1 8023 8025
1915 1 8026 8027
1916 1 8026 8028
1917 1 8029 8030
1918 1 8029 8031
1919 1 8032 8033
1920 1 8032 8034
1921 1 8035 8036
1922 1 8035 8037
1923 1 8038 8039
1924 1 8038 8040
1925 1 8041 8042
1926 1 8041 8043
1927 1 8044 8045
1928 1 8044 8046
1929 1 8047 8048
1930 1 8047 8049
1931 1 8050 8051
1932 1 8050 8052
1933 1 8053 8054
1934 1 8053 8055
1935 1 8056 8057
1936 1 8056 8058
1937 1 8059 8060
1938 1 8059 8061
1939 1 8062 8063
1940 1 8062 8064
1941 1 8065 8066
1942 1 8065 8067
1943 1 8068 8069
1944 1 8068 8070
1945 1 8071 8072
1946 1 8071 8073
1947 1 8074 8075
1948 1 8074 8076
1949 1 8077 8078
1950 1 8077 8079
1951 1 8080 8081
1952 1 8080 8082
1953 1 8083 8084
1954 1 8083 8085
1955 1 8086 8087
1956 1 8086 8088
1957 1 8089 8090
1958 1 8089 8091
1959 1 8092 8093
1960 1 8092 8094
1961 1 8095 8096
1962 1 8095 8097
1963 1 8098 8099
1964 1 8098 8100
1965 1 8101 8102
1966 1 8101 8103
1967 1 8104 8105
1968 1 8104 8106
1969 1 8107 8108
1970 1 8107 8109
1971 1 8110 8111
1972 1 8110 8112
1973 1 8113 8114
1974 1 8113 8115
1975 1 8116 8117
1976 1 8116 8118
1977 1 8119 8120
1978 1 8119 8121
1979 1 8122 8123
1980 1 8122 8124
1981 1 8125 8126
1982 1 8125 8127
1983 1 8128 8129
1984 1 8128 8130
1985 1 8131 8132
1986 1 8131 8133
1987 1 8134 8135
1988 1 8134 8136
1989 1 8137 8138
1990 1 8137 8139
1991 1 8140 8141
1992 1 8140 8142
1993 1 8143 8144
1994 1 8143 8145
1995 1 8146 8147
1996 1 8146 8148
1997 1 8149 8150
1998 1 8149 8151
1999 1 8152 8153
2000 1 8152 8154
2001 1 8155 8156
2002 1 8155 8157
2003 1 8158 8159
2004 1 8158 8160
2005 1 8161 8162
2006 1 8161 8163
2007 1 8164 8165
2008 1 8164 8166
2009 1 8167 8168
2010 1 8167 8169
2011 1 8170 8171
2012 1 8170 8172
2013 1 8173 8174
2014 1 8173 8175
2015 1 8176 8177
2016 1 8176 8178
2017 1 8179 8180
2018 1 8179 8181
2019 1 8182 8183
2020 1 8182 8184
2021 1 8185 8186
2022 1 8185 8187
2023 1 8188 8189
2024 1 8188 8190
2025 1 8191 8192
2026 1 8191 8193
2027 1 8194 8195
2028 1 8194 8196
2029 1 8197 8198
2030 1 8197 8199
2031 1 8200 8201
2032 1 8200 8202
2033 1 8203 8204
2034 1 8203 8205
2035 1 8206 8207
2036 1 8206 8208
2037 1 8209 8210
2038 1 8209 8211
2039 1 8212 8213
2040 1 8212 8214
2041 1 8215 8216
2042 1 8215 8217
2043 1 8218 8219
2044 1 8218 8220
2045 1 8221 8222
2046 1 8221 8223
2047 1 8224 8225
2048 1 8224 8226
2049 1 8227 8228
2050 1 8227 8229
2051 1 8230 8231
2052 1 8230 8232
2053 1 8233 8234
2054 1 8233 8235
2055 1 8236 8237
2056 1 8236 8238
2057 1 8239 8240
2058 1 8239 8241
2059 1 8242 8243
2060 1 8242 8244
2061 1 8245 8246
2062 1 8245 8247
2063 1 8248 8249
2064 1 8248 8250
2065 1 8251 8252
2066 1 8251 8253
2067 1 8254 8255
2068 1 8254 8256
2069 1 8257 8258
2070 1 8257 8259
2071 1 8260 8261
2072 1 8260 8262
2073 1 8263 8264
2074 1 8263 8265
2075 1 8266 8267
2076 1 8266 8268
2077 1 8269 8270
2078 1 8269 8271
2079 1 8272 8273
2080 1 8272 8274
2081 1 8275 8276
2082 1 8275 8277
2083 1 8278 8279
2084 1 8278 8280
2085 1 8281 8282
2086 1 8281 8283
2087 1 8284 8285
2088 1 8284 8286
2089 1 8287 8288
2090 1 8287 8289
2091 1 8290 8291
2092 1 8290 8292
2093 1 8293 8294
2094 1 8293 8295
2095 1 8296 8297
2096 1 8296 8298
2097 1 8299 8300
2098 1 8299 8301
2099 1 8302 8303
2100 1 8302 8304
2101 1 8305 8306
2102 1 8305 8307
2103 1 8308 8309
2104 1 8308 8310
2105 1 8311 8312
2106 1 8311 8313
2107 1 8314 8315
2108 1 8314 8316
2109 1 8317 8318
2110 1 8317 8319
2111 1 8320 8321
2112 1 8320 8322
2113 1 8323 8324
2114 1 8323 8325
2115 1 8326 8327
2116 1 8326 8328
2117 1 8329 8330
2118 1 8329 8331
2119 1 8332 8333
2120 1 8332 8334
2121 1 8335 8336
2122 1 8335 8337
2123 1 8338 8339
2124 1 8338 8340
2125 1 8341 8342
2126 1 8341 8343
2127 1 8344 8345
2128 1 8344 8346
2129 1 8347 8348
2130 1 8347 8349
2131 1 8350 8351
2132 1 8350 8352
2133 1 8353 8354
2134 1 8353 8355
2135 1 8356 8357
2136 1 8356 8358
2137 1 8359 8360
2138 1 8359 8361
2139 1 8362 8363
2140 1 8362 8364
2141 1 8365 8366
2142 1 8365 8367
2143 1 8368 8369
2144 1 8368 8370
2145 1 8371 8372
2146 1 8371 8373
2147 1 8374 8375
2148 1 8374 8376
2149 1 8377 8378
2150 1 8377 8379
2151 1 8380 8381
2152 1 8380 8382
2153 1 8383 8384
2154 1 8383 8385
2155 1 8386 8387
2156 1 8386 8388
2157 1 8389 8390
2158 1 8389 8391
2159 1 8392 8393
2160 1 8392 8394
2161 1 8395 8396
2162 1 8395 8397
2163 1 8398 8399
2164 1 8398 8400
2165 1 8401 8402
2166 1 8401 8403
2167 1 8404 8405
2168 1 8404 8406
2169 1 8407 8408
2170 1 8407 8409
2171 1 8410 8411
2172 1 8410 8412
2173 1 8413 8414
2174 1 8413 8415
2175 1 8416 8417
2176 1 8416 8418
2177 1 8419 8420
2178 1 8419 8421
2179 1 8422 8423
2180 1 8422 8424
2181 1 8425 8426
2182 1 8425 8427
2183 1 8428 8429
2184 1 8428 8430
2185 1 8431 8432
2186 1 8431 8433
2187 1 8434 8435
2188 1 8434 8436
2189 1 8437 8438
2190 1 8437 8439
2191 1 8440 8441
2192 1 8440 8442
2193 1 8443 8444
2194 1 8443 8445
2195 1 8446 8447
2196 1 8446 8448
2197 1 8449 8450
2198 1 8449 8451
2199 1 8452 8453
2200 1 8452 8454
2201 1 8455 8456
2202 1 8455 8457
2203 1 8458 8459
2204 1 8458 8460
2205 1 8461 8462
2206 1 8461 8463
2207 1 8464 8465
2208 1 8464 8466
2209 1 8467 8468
2210 1 8467 8469
2211 1 8470 8471
2212 1 8470 8472
2213 1 8473 8474
2214 1 8473 8475
2215 1 8476 8477
2216 1 8476 8478
2217 1 8479 8480
2218 1 8479 8481
2219 1 8482 8483
2220 1 8482 8484
2221 1 8485 8486
2222 1 8485 8487
2223 1 8488 8489
2224 1 8488 8490
2225 1 8491 8492
2226 1 8491 8493
2227 1 8494 8495
2228 1 8494 8496
2229 1 8497 8498
2230 1 8497 8499
2231 1 8500 8501
2232 1 8500 8502
2233 1 8503 8504
2234 1 8503 8505
2235 1 8506 8507
2236 1 8506 8508
2237 1 8509 8510
2238 1 8509 8511
2239 1 8512 8513
2240 1 8512 8514
2241 1 8515 8516
2242 1 8515 8517
2243 1 8518 8519
2244 1 8518 8520
2245 1 8521 8522
2246 1 8521 8523
2247 1 8524 8525
2248 1 8524 8526
2249 1 8527 8528
2250 1 8527 8529
2251 1 8530 8531
2252 1 8530 8532
2253 1 8533 8534
2254 1 8533 8535
2255 1 8536 8537
2256 1 8536 8538
2257 1 8539 8540
2258 1 8539 8541
2259 1 8542 8543
2260 1 8542 8544
2261 1 8545 8546
2262 1 8545 8547
2263 1 8548 8549
2264 1 8548 8550
2265 1 8551 8552
2266 1 8551 8553
2267 1 8554 8555
2268 1 8554 8556
2269 1 8557 8558
2270 1 8557 8559
2271 1 8560 8561
2272 1 8560 8562
2273 1 8563 8564
2274 1 8563 8565
2275 1 8566 8567
2276 1 8566 8568
2277 1 8569 8570
2278 1 8569 8571
2279 1 8572 8573
2280 1 8572 8574
2281 1 8575 8576
2282 1 8575 8577
2283 1 8578 8579
2284 1 8578 8580
2285 1 8581 8582
2286 1 8581 8583
2287 1 8584 8585
2288 1 8584 8586
2289 1 8587 8588
2290 1 8587 8589
2291 1 8590 8591
2292 1 8590 8592
2293 1 8593 8594
2294 1 8593 8595
2295 1 8596 8597
2296 1 8596 8598
2297 1 8599 8600
2298 1 8599 8601
2299 1 8602 8603
2300 1 8602 8604
2301 1 8605 8606
2302 1 8605 8607
2303 1 8608 8609
2304 1 8608 8610
2305 1 8611 8612
2306 1 8611 8613
2307 1 8614 8615
2308 1 8614 8616
2309 1 8617 8618
2310 1 8617 8619
2311 1 8620 8621
2312 1 8620 8622
2313 1 8623 8624
2314 1 8623 8625
2315 1 8626 8627
2316 1 8626 8628
2317 1 8629 8630
2318 1 8629 8631
2319 1 8632 8633
2320 1 8632 8634
2321 1 8635 8636
2322 1 8635 8637
2323 1 8638 8639
2324 1 8638 8640
2325 1 8641 8642
2326 1 8641 8643
2327 1 8644 8645
2328 1 8644 8646
2329 1 8647 8648
2330 1 8647 8649
2331 1 8650 8651
2332 1 8650 8652
2333 1 8653 8654
2334 1 8653 8655
2335 1 8656 8657
2336 1 8656 8658
2337 1 8659 8660
2338 1 8659 8661
2339 1 8662 8663
2340 1 8662 8664
2341 1 8665 8666
2342 1 8665 8667
2343 1 8668 8669
2344 1 8668 8670
2345 1 8671 8672
2346 1 8671 8673
2347 1 8674 8675
2348 1 8674 8676
2349 1 8677 8678
2350 1 8677 8679
2351 1 8680 8681
2352 1 8680 8682
2353 1 8683 8684
2354 1 8683 8685
2355 1 8686 8687
2356 1 8686 8688
2357 1 8689 8690
2358 1 8689 8691
2359 1 8692 8693
2360 1 8692 8694
2361 1 8695 8696
2362 1 8695 8697
2363 1 8698 8699
2364 1 8698 8700
2365 1 8701 8702
2366 1 8701 8703
2367 1 8704 8705
2368 1 8704 8706
2369 1 8707 8708
2370 1 8707 8709
2371 1 8710 8711
2372 1 8710 8712
2373 1 8713 8714
2374 1 8713 8715
2375 1 8716 8717
2376 1 8716 8718
2377 1 8719 8720
2378 1 8719 8721
2379 1 8722 8723
2380 1 8722 8724
2381 1 8725 8726
2382 1 8725 8727
2383 1 8728 8729
2384 1 8728 8730
2385 1 8731 8732
2386 1 8731 8733
2387 1 8734 8735
2388 1 8734 8736
2389 1 8737 8738
2390 1 8737 8739
2391 1 8740 8741
2392 1 8740 8742
2393 1 8743 8744
2394 1 8743 8745
2395 1 8746 8747
2396 1 8746 8748
2397 1 8749 8750
2398 1 8749 8751
2399 1 8752 8753
2400 1 8752 8754
2401 1 8755 8756
2402 1 8755 8757
2403 1 8758 8759
2404 1 8758 8760
2405 1 8761 8762
2406 1 8761 8763
2407 1 8764 8765
2408 1 8764 8766
2409 1 8767 8768
2410 1 8767 8769
2411 1 8770 8771
2412 1 8770 8772
2413 1 8773 8774
2414 1 8773 8775
2415 1 8776 8777
2416 1 8776 8778
2417 1 8779 8780
2418 1 8779 8781
2419 1 8782 8783
2420 1 8782 8784
2421 1 8785 8786
2422 1 8785 8787
2423 1 8788 8789
2424 1 8788 8790
2425 1 8791 8792
2426 1 8791 8793
2427 1 8794 8795
2428 1 8794 8796
2429 1 8797 8798
2430 1 8797 8799
2431 1 8800 8801
2432 1 8800 8802
2433 1 8803 8804
2434 1 8803 8805
2435 1 8806 8807
2436 1 8806 8808
2437 1 8809 8810
2438 1 8809 8811
2439 1 8812 8813
2440 1 8812 8814
2441 1 8815 8816
2442 1 8815 8817
2443 1 8818 8819
2444 1 8818 8820
2445 1 8821 8822
2446 1 8821 8823
2447 1 8824 8825
2448 1 8824 8826
2449 1 8827 8828
2450 1 8827 8829
2451 1 8830 8831
2452 1 8830 8832
2453 1 8833 8834
2454 1 8833 8835
2455 1 8836 8837
2456 1 8836 8838
2457 1 8839 8840
2458 1 8839 8841
2459 1 8842 8843
2460 1 8842 8844
2461 1 8845 8846
2462 1 8845 8847
2463 1 8848 8849
2464 1 8848 8850
2465 1 8851 8852
2466 1 8851 8853
2467 1 8854 8855
2468 1 8854 8856
2469 1 8857 8858
2470 1 8857 8859
2471 1 8860 8861
2472 1 8860 8862
2473 1 8863 8864
2474 1 8863 8865
2475 1 8866 8867
2476 1 8866 8868
2477 1 8869 8870
2478 1 8869 8871
2479 1 8872 8873
2480 1 8872 8874
2481 1 8875 8876
2482 1 8875 8877
2483 1 8878 8879
2484 1 8878 8880
2485 1 8881 8882
2486 1 8881 8883
2487 1 8884 8885
2488 1 8884 8886
2489 1 8887 8888
2490 1 8887 8889
2491 1 8890 8891
2492 1 8890 8892
2493 1 8893 8894
2494 1 8893 8895
2495 1 8896 8897
2496 1 8896 8898
2497 1 8899 8900
2498 1 8899 8901
2499 1 8902 8903
2500 1 8902 8904
2501 1 8905 8906
2502 1 8905 8907
2503 1 8908 8909
2504 1 8908 8910
2505 1 8911 8912
2506 1 8911 8913
2507 1 8914 8915
2508 1 8914 8916
2509 1 8917 8918
2510 1 8917 8919
2511 1 8920 8921
2512 1 8920 8922
2513 1 8923 8924
2514 1 8923 8925
2515 1 8926 8927
2516 1 8926 8928
2517 1 8929 8930
2518 1 8929 8931
2519 1 8932 8933
2520 1 8932 8934
2521 1 8935 8936
2522 1 8935 8937
2523 1 8938 8939
2524 1 8938 8940
2525 1 8941 8942
2526 1 8941 8943
2527 1 8944 8945
2528 1 8944 8946
2529 1 8947 8948
2530 1 8947 8949
2531 1 8950 8951
2532 1 8950 8952
2533 1 8953 8954
2534 1 8953 8955
2535 1 8956 8957
2536 1 8956 8958
2537 1 8959 8960
2538 1 8959 8961
2539 1 8962 8963
2540 1 8962 8964
2541 1 8965 8966
2542 1 8965 8967
2543 1 8968 8969
2544 1 8968 8970
2545 1 8971 8972
2546 1 8971 8973
2547 1 8974 8975
2548 1 8974 8976
2549 1 8977 8978
2550 1 8977 8979
2551 1 8980 8981
2552 1 8980 8982
2553 1 8983 8984
2554 1 8983 8985
2555 1 8986 8987
2556 1 8986 8988
2557 1 8989 8990
2558 1 8989 8991
2559 1 8992 8993
2560 1 8992 8994
2561 1 8995 8996
2562 1 8995 8997
2563 1 8998 8999
2564 1 8998 9000
2565 1 9001 9002
2566 1 9001 9003
2567 1 9004 9005
2568 1 9004 9006
2569 1 9007 9008
2570 1 9007 9009
2571 1 9010 9011
2572 1 9010 9012
2573 1 9013 9014
2574 1 9013 9015
2575 1 9016 9017
2576 1 9016 9018
2577 1 9019 9020
2578 1 9019 9021
2579 1 9022 9023
2580 1 9022 9024
2581 1 9025 9026
2582 1 9025 9027
2583 1 9028 9029
2584 1 9028 9030
2585 1 9031 9032
2586 1 9031 9033
2587 1 9034 9035
2588 1 9034 9036
2589 1 9037 9038
2590 1 9037 9039
2591 1 9040 9041
2592 1 9040 9042
2593 1 9043 9044
2594 1 9043 9045
2595 1 9046 9047
2596 1 9046 9048
2597 1 9049 9050
2598 1 9049 9051
2599 1 9052 9053
2600 1 9052 9054
2601 1 9055 9056
2602 1 9055 9057
2603 1 9058 9059
2604 1 9058 9060
2605 1 9061 9062
2606 1 9061 9063
2607 1 9064 9065
2608 1 9064 9066
2609 1 9067 9068
2610 1 9067 9069
2611 1 9070 9071
2612 1 9070 9072
2613 1 9073 9074
2614 1 9073 9075
2615 1 9076 9077
2616 1 9076 9078
2617 1 9079 9080
2618 1 9079 9081
2619 1 9082 9083
2620 1 9082 9084
2621 1 9085 9086
2622 1 9085 9087
2623 1 9088 9089
2624 1 9088 9090
2625 1 9091 9092
2626 1 9091 9093
2627 1 9094 9095
2628 1 9094 9096
2629 1 9097 9098
2630 1 9097 9099
2631 1 9100 9101
2632 1 9100 9102
2633 1 9103 9104
2634 1 9103 9105
2635 1 9106 9107
2636 1 9106 9108
2637 1 9109 9110
2638 1 9109 9111
2639 1 9112 9113
2640 1 9112 9114
2641 1 9115 9116
2642 1 9115 9117
2643 1 9118 9119
2644 1 9118 9120
2645 1 9121 9122
2646 1 9121 9123
2647 1 9124 9125
2648 1 9124 9126
2649 1 9127 9128
2650 1 9127 9129
2651 1 9130 9131
2652 1 9130 9132
2653 1 9133 9134
2654 1 9133 9135
2655 1 9136 9137
2656 1 9136 9138
2657 1 9139 9140
2658 1 9139 9141
2659 1 9142 9143
2660 1 9142 9144
2661 1 9145 9146
2662 1 9145 9147
2663 1 9148 9149
2664 1 9148 9150
2665 1 9151 9152
2666 1 9151 9153
2667 1 9154 9155
2668 1 9154 9156
2669 1 9157 9158
2670 1 9157 9159
2671 1 9160 9161
2672 1 9160 9162
2673 1 9163 9164
2674 1 9163 9165
2675 1 9166 9167
2676 1 9166 9168
2677 1 9169 9170
2678 1 9169 9171
2679 1 9172 9173
2680 1 9172 9174
2681 1 9175 9176
2682 1 9175 9177
2683 1 9178 9179
2684 1 9178 9180
2685 1 9181 9182
2686 1 9181 9183
2687 1 9184 9185
2688 1 9184 9186
2689 1 9187 9188
2690 1 9187 9189
2691 1 9190 9191
2692 1 9190 9192
2693 1 9193 9194
2694 1 9193 9195
2695 1 9196 9197
2696 1 9196 9198
2697 1 9199 9200
2698 1 9199 9201
2699 1 9202 9203
2700 1 9202 9204
2701 1 9205 9206
2702 1 9205 9207
2703 1 9208 9209
2704 1 9208 9210
2705 1 9211 9212
2706 1 9211 9213
2707 1 9214 9215
2708 1 9214 9216
2709 1 9217 9218
2710 1 9217 9219
2711 1 9220 9221
2712 1 9220 9222
2713 1 9223 9224
2714 1 9223 9225
2715 1 9226 9227
2716 1 9226 9228
2717 1 9229 9230
2718 1 9229 9231
2719 1 9232 9233
2720 1 9232 9234
2721 1 9235 9236
2722 1 9235 9237
2723 1 9238 9239
2724 1 9238 9240
2725 1 9241 9242
2726 1 9241 9243
2727 1 9244 9245
2728 1 9244 9246
2729 1 9247 9248
2730 1 9247 9249
2731 1 9250 9251
2732 1 9250 9252
2733 1 9253 9254
2734 1 9253 9255
2735 1 9256 9257
2736 1 9256 9258
2737 1 9259 9260
2738 1 9259 9261
2739 1 9262 9263
2740 1 9262 9264
2741 1 9265 9266
2742 1 9265 9267
2743 1 9268 9269
2744 1 9268 9270
2745 1 9271 9272
2746 1 9271 9273
2747 1 9274 9275
2748 1 9274 9276
2749 1 9277 9278
2750 1 9277 9279
2751 1 9280 9281
2752 1 9280 9282
2753 1 9283 9284
2754 1 9283 9285
2755 1 9286 9287
2756 1 9286 9288
2757 1 9289 9290
2758 1 9289 9291
2759 1 9292 9293
2760 1 9292 9294
2761 1 9295 9296
2762 1 9295 9297
2763 1 9298 9299
2764 1 9298 9300
2765 1 9301 9302
2766 1 9301 9303
2767 1 9304 9305
2768 1 9304 9306
2769 1 9307 9308
2770 1 9307 9309
2771 1 9310 9311
2772 1 9310 9312
2773 1 9313 9314
2774 1 9313 9315
2775 1 9316 9317
2776 1 9316 9318
2777 1 9319 9320
2778 1 9319 9321
2779 1 9322 9323
2780 1 9322 9324
2781 1 9325 9326
2782 1 9325 9327
2783 1 9328 9329
2784 1 9328 9330
2785 1 9331 9332
2786 1 9331 9333
2787 1 9334 9335
2788 1 9334 9336
2789 1 9337 9338
2790 1 9337 9339
2791 1 9340 9341
2792 1 9340 9342
2793 1 9343 9344
2794 1 9343 9345
2795 1 9346 9347
2796 1 9346 9348
2797 1 9349 9350
2798 1 9349 9351
2799 1 9352 9353
2800 1 9352 9354
2801 1 9355 9356
2802 1 9355 9357
2803 1 9358 9359
2804 1 9358 9360
2805 1 9361 9362
2806 1 9361 9363
2807 1 9364 9365
2808 1 9364 9366

Angles

1 1 5156 5155 5157
2 1 5159 5158 5160
3 1 5162 5161 5163
4 1 5165 5164 5166
5 1 5168 5167 5169
6 1 5171 5170 5172
7 1 5174 5173 5175
8 1 5177 5176 5178
9 1 5180 5179 5181
10 1 5183 5182 5184
11 1 5186 5185 5187
12 1 5189 5188 5190
13 1 5192 5191 5193
14 1 5195 5194 5196
15 1 5198 5197 5199
16 1 5201 5200 5202
17 1 5204 5203 5205
18 1 5207 5206 5208
19 1 5210 5209 5211
20 1 5213 5212 5214
21 1 5216 5215 5217
22 1 5219 5218 5220
23 1 5222 5221 5223
24 1 5225 5224 5226
25 1 5228 5227 5229
26 1 5231 5230 5232
27 1 5234 5233 5235
28 1 5237 5236 5238
29 1 5240 5239 5241
30 1 5243 5242 5244
31 1 5246 5245 5247
32 1 5249 5248 5250
33 1 5252 5251 5253
34 1 5255 5254 5256
35 1 5258 5257 5259
36 1 5261 5260 5262
37 1 5264 5263 5265
38 1 5267 5266 5268
39 1 5270 5269 5271
40 1 5273 5272 5274
41 1 5276 5275 5277
42 1 5279 5278 5280
43 1 5282 5281 5283
44 1 5285 5284 5286
45 1 5288 5287 5289
46 1 5291 5290 5292
47 1 5294 5293 5295
48 1 5297 5296 5298
49 1 5300 5299 5301
50 1 5303 5302 5304
51 1 5306 5305 5307
52 1 5309 5308 5310
53 1 5312 5311 5313
54 1 5315 5314 5316
55 1 5318 5317 5319
56 1 5321 5320 5322
57 1 5324 5323 5325
58 1 5327 5326 5328
59 1 5330 5329 5331
60 1 5333 5332 5334
61 1 5336 5335 5337
62 1 5339 5338 5340
63 1 5342 5341 5343
64 1 5345 5344 5346
65 1 5348 5347 5349
66 1 5351 5350 5352
67 1 5354 5353 5355
68 1 5357 5356 5358
69 1 5360 5359 5361
70 1 5363 5362 5364
71 1 5366 5365 5367
72 1 5369 5368 5370
73 1 5372 5371 5373
74 1 5375 5374 5376
75 1 5378 5377 5379
76 1 5381 5380 5382
77 1 5384 5383 5385
78 1 5387 5386 5388
79 1 5390 5389 5391
80 1 5393 5392 5394
81 1 5396 5395 5397
82 1 5399 5398 5400
83 1 5402 5401 5403
84 1 5405 5404 5406
85 1 5408 5407 5409
86 1 5411 5410 5412
87 1 5414 5413 5415
88 1 5417 5416 5418
89 1 5420 5419 5421
90 1 5423 5422 5424
91 1 5426 5425 5427
92 1 5429 5428 5430
93 1 5432 5431 5433
94 1 5435 5434 5436
95 1 5438 5437 5439
96 1 5441 5440 5442
97 1 5444 5443 5445
98 1 5447 5446 5448
99 1 5450 5449 5451
100 1 5453 5452 5454
101 1 5456 5455 5457
102 1 5459 5458 5460
103 1 5462 5461 5463
104 1 5465 5464 5466
105 1 5468 5467 5469
106 1 5471 5470 5472
107 1 5474 5473 5475
108 1 5477 5476 5478
109 1 5480 5479 5481
110 1 5483 5482 5484
111 1 5486 5485 5487
112 1 5489 5488 5490
113 1 5492 5491 5493
114 1 5495 5494 5496
115 1 5498 5497 5499
116 1 5501 5500 5502
117 1 5504 5503 5505
118 1 5507 5506 5508
119 1 5510 5509 5511
120 1 5513 5512 5514
121 1 5516 5515 5517
122 1 5519 5518 5520
123 1 5522 5521 5523
124 1 5525 5524 5526
125 1 5528 5527 5529
126 1 5531 5530 5532
127 1 5534 5533 5535
128 1 5537 5536 5538
129 1 5540 5539 5541
130 1 5543 5542 5544
131 1 5546 5545 5547
132 1 5549 5548 5550
133 1 5552 5551 5553
134 1 5555 5554 5556
135 1 5558 5557 5559
136 1 5561 5560 5562
137 1 5564 5563 5565
138 1 5567 5566 5568
139 1 5570 5569 5571
140 1 5573 5572 5574
141 1 5576 5575 5577
142 1 5579 5578 5580
143 1 5582 5581 5583
144 1 5585 5584 5586
145 1 5588 5587 5589
146 1 5591 5590 5592
147 1 5594 5593 5595
148 1 5597 5596 5598
149 1 5600 5599 5601
150 1 5603 5602 5604
151 1 5606 5605 5607
152 1 5609 5608 5610
153 1 5612 5611 5613
154 1 5615 5614 5616
155 1 5618 5617 5619
156 1 5621 5620 5622
157 1 5624 5623 5625
158 1 5627 5626 5628
159 1 5630 5629 5631
160 1 5633 5632 5634
161 1 5636 5635 5637
162 1 5639 5638 5640
163 1 5642 5641 5643
164 1 5645 5644 5646
165 1 5648 5647 5649
166 1 5651 5650 5652
167 1 5654 5653 5655
168 1 5657 5656 5658
169 1 5660 5659 5661
170 1 5663 5662 5664
171 1 5666 5665 5667
172 1 5669 5668 5670
173 1 5672 5671 5673
174 1 5675 5674 5676
175 1 5678 5677 5679
176 1 5681 5680 5682
177 1 5684 5683 5685
178 1 5687 5686 5688
179 1 5690 5689 5691
180 1 5693 5692 5694
181 1 5696 5695 5697
182 1 5699 5698 5700
183 1 5702 5701 5703
184 1 5705 5704 5706
185 1 5708 5707 5709
186 1 5711 5710 5712
187 1 5714 5713 5715
188 1 5717 5716 5718
189 1 5720 5719 5721
190 1 5723 5722 5724
191 1 5726 5725 5727
192 1 5729 5728 5730
193 1 5732 5731 5733
194 1 5735 5734 5736
195 1 5738 5737 5739
196 1 5741 5740 5742
197 1 5744 5743 5745
198 1 5747 5746 5748
199 1 5750 5749 5751
200 1 5753 5752 5754
201 1 5756 5755 5757
202 1 5759 5758 5760
203 1 5762 5761 5763
204 1 5765 5764 5766
205 1 5768 5767 5769
206 1 5771 5770 5772
207 1 5774 5773 5775
208 1 5777 5776 5778
209 1 5780 5779 5781
210 1 5783 5782 5784
211 1 5786 5785 5787
212 1 5789 5788 5790
213 1 5792 5791 5793
214 1 5795 5794 5796
215 1 5798 5797 5799
216 1 5801 5800 5802
217 1 5804 5803 5805
218 1 5807 5806 5808
219 1 5810 5809 5811
220 1 5813 5812 5814
221 1 5816 5815 5817
222 1 5819 5818 5820
223 1 5822 5821 5823
224 1 5825 5824 5826
225 1 5828 5827 5829
226 1 5831 5830 5832
227 1 5834 5833 5835
228 1 5837 5836 5838
229 1 5840 5839 5841
230 1 5843 5842 5844
231 1 5846 5845 5847
232 1 5849 5848 5850
233 1 5852 5851 5853
234 1 5855 5854 5856
235 1 5858 5857 5859
236 1 5861 5860 5862
237 1 5864 5863 5865
238 1 5867 5866 5868
239 1 5870 5869 5871
240 1 5873 5872 5874
241 1 5876 5875 5877
242 1 5879 5878 5880
243 1 5882 5881 5883
244 1 5885 5884 5886
245 1 5888 5887 5889
246 1 5891 5890 5892
247 1 5894 5893 5895
248 1 5897 5896 5898
249 1 5900 5899 5901
250 1 5903 5902 5904
251 1 5906 5905 5907
252 1 5909 5908 5910
253 1 5912 5911 5913
254 1 5915 5914 5916
255 1 5918 5917 5919
256 1 5921 5920 5922
257 1 5924 5923 5925
258 1 5927 5926 5928
259 1 5930 5929 5931
260 1 5933 5932 5934
261 1 5936 5935 5937
262 1 5939 5938 5940
263 1 5942 5941 5943
264 1 5945 5944 5946
265 1 5948 5947 5949
266 1 5951 5950 5952
267 1 5954 5953 5955
268 1 5957 5956 5958
269 1 5960 5959 5961
270 1 5963 5962 5964
271 1 5966 5965 5967
272 1 5969 5968 5970
273 1 5972 5971 5973
274 1 5975 5974 5976
275 1 5978 5977 5979
276 1 5981 5980 5982
277 1 5984 5983 5985
278 1 5987 5986 5988
279 1 5990 5989 5991
280 1 5993 5992 5994
281 1 5996 5995 5997
282 1 5999 5998 6000
283 1 6002 6001 6003
284 1 6005 6004 6006
285 1 6008 6007 6009
286 1 6011 6010 6012
287 1 6014 6013 6015
288 1 6017 6016 6018
289 1 6020 6019 6021
290 1 6023 6022 6024
291 1 6026 6025 6027
292 1 6029 6028 6030
293 1 6032 6031 6033
294 1 6035 6034 6036
295 1 6038 6037 6039
296 1 6041 6040 6042
297 1 6044 6043 6045
298 1 6047 6046 6048
299 1 6050 6049 6051
300 1 6053 6052 6054
301 1 6056 6055 6057
302 1 6059 6058 6060
303 1 6062 6061 6063
304 1 6065 6064 6066
305 1 6068 6067 6069
306 1 6071 6070 6072
307 1 6074 6073 6075
308 1 6077 6076 6078
309 1 6080 6079 6081
310 1 6083 6082 6084
311 1 6086 6085 6087
312 1 6089 6088 6090
313 1 6092 6091 6093
314 1 6095 6094 6096
315 1 6098 6097 6099
316 1 6101 6100 6102
317 1 6104 6103 6105
318 1 6107 6106 6108
319 1 6110 6109 6111
320 1 6113 6112 6114
321 1 6116 6115 6117
322 1 6119 6118 6120
323 1 6122 6121 6123
324 1 6125 6124 6126
325 1 6128 6127 6129
326 1 6131 6130 6132
327 1 6134 6133 6135
328 1 6137 6136 6138
329 1 6140 6139 6141
330 1 6143 6142 6144
331 1 6146 6145 6147
332 1 6149 6148 6150
333 1 6152 6151 6153
334 1 6155 6154 6156
335 1 6158 6157 6159
336 1 6161 6160 6162
337 1 6164 6163 6165
338 1 6167 6166 6168
339 1 6170 6169 6171
340 1 6173 6172 6174
341 1 6176 6175 6177
342 1 6179 6178 6180
343 1 6182 6181 6183
344 1 6185 6184 6186
345 1 6188 6187 6189
346 1 6191 6190 6192
347 1 6194 6193 6195
348 1 6197 6196 6198
349 1 6200 6199 6201
350 1 6203 6202 6204
351 1 6206 6205 6207
352 1 6209 6208 6210
353 1 6212 6211 6213
354 1 6215 6214 6216
355 1 6218 6217 6219
356 1 6221 6220 6222
357 1 6224 6223 6225
358 1 6227 6226 6228
359 1 6230 6229 6231
360 1 6233 6232 6234
361 1 6236 6235 6237
362 1 6239 6238 6240
363 1 6242 6241 6243
364 1 6245 6244 6246
365 1 6248 6247 6249
366 1 6251 6250 6252
367 1 6254 6253 6255
368 1 6257 6256 6258
369 1 6260 6259 6261
370 1 6263 6262 6264
371 1 6266 6265 6267
372 1 6269 6268 6270
373 1 6272 6271 6273
374 1 6275 6274 6276
375 1 6278 6277 6279
376 1 6281 6280 6282
377 1 6284 6283 6285
378 1 6287 6286 6288
379 1 6290 6289 6291
380 1 6293 6292 6294
381 1 6296 6295 6297
382 1 6299 6298 6300
383 1 6302 6301 6303
384 1 6305 6304 6306
385 1 6308 6307 6309
386 1 6311 6310 6312
387 1 6314 6313 6315
388 1 6317 6316 6318
389 1 6320 6319 6321
390 1 6323 6322 6324
391 1 6326 6325 6327
392 1 6329 6328 6330
393 1 6332 6331 6333
394 1 6335 6334 6336
395 1 6338 6337 6339
396 1 6341 6340 6342
397 1 6344 6343 6345
398 1 6347 6346 6348
399 1 6350 6349 6351
400 1 6353 6352 6354
401 1 6356 6355 6357
402 1 6359 6358 6360
403 1 6362 6361 6363
404 1 6365 6364 6366
405 1 6368 6367 6369
406 1 6371 6370 6372
407 1 6374 6373 6375
408 1 6377 6376 6378
409 1 6380 6379 6381
410 1 6383 6382 6384
411 1 6386 6385 6387
412 1 6389 6388 6390
413 1 6392 6391 6393
414 1 6395 6394 6396
415 1 6398 6397 6399
416 1 6401 6400 6402
417 1 6404 6403 6405
418 1 6407 6406 6408
419 1 6410 6409 6411
420 1 6413 6412 6414
421 1 6416 6415 6417
422 1 6419 6418 6420
423 1 6422 6421 6423
424 1 6425 6424 6426
425 1 6428 6427 6429
426 1 6431 6430 6432
427 1 6434 6433 6435
428 1 6437 6436 6438
429 1 6440 6439 6441
430 1 6443 6442 6444
431 1 6446 6445 6447
432 1 6449 6448 6450
433 1 6452 6451 6453
434 1 6455 6454 6456
435 1 6458 6457 6459
436 1 6461 6460 6462
437 1 6464 6463 6465
438 1 6467 6466 6468
439 1 6470 6469 6471
440 1 6473 6472 6474
441 1 6476 6475 6477
442 1 6479 6478 6480
443 1 6482 6481 6483
444 1 6485 6484 6486
445 1 6488 6487 6489
446 1 6491 6490 6492
447 1 6494 6493 6495
448 1 6497 6496 6498
449 1 6500 6499 6501
450 1 6503 6502 6504
451 1 6506 6505 6507
452 1 6509 6508 6510
453 1 6512 6511 6513
454 1 6515 6514 6516
455 1 6518 6517 6519
456 1 6521 6520 6522
457 1 6524 6523 6525
458 1 6527 6526 6528
459 1 6530 6529 6531
460 1 6533 6532 6534
461 1 6536 6535 6537
462 1 6539 6538 6540
463 1 6542 6541 6543
464 1 6545 6544 6546
465 1 6548 6547 6549
466 1 6551 6550 6552
467 1 6554 6553 6555
468 1 6557 6556 6558
469 1 6560 6559 6561
470 1 6563 6562 6564
471 1 6566 6565 6567
472 1 6569 6568 6570
473 1 6572 6571 6573
474 1 6575 6574 6576
475 1 6578 6577 6579
476 1 6581 6580 6582
477 1 6584 6583 6585
478 1 6587 6586 6588
479 1 6590 6589 6591
480 1 6593 6592 6594
481 1 6596 6595 6597
482 1 6599 6598 6600
483 1 6602 6601 6603
484 1 6605 6604 6606
485 1 6608 6607 6609
486 1 6611 6610 6612
487 1 6614 6613 6615
488 1 6617 6616 6618
489 1 6620 6619 6621
490 1 6623 6622 6624
491 1 6626 6625 6627
492 1 6629 6628 6630
493 1 6632 6631 6633
494 1 6635 6634 6636
495 1 6638 6637 6639
496 1 6641 6640 6642
497 1 6644 6643 6645
498 1 6647 6646 6648
499 1 6650 6649 6651
500 1 6653 6652 6654
501 1 6656 6655 6657
502 1 6659 6658 6660
503 1 6662 6661 6663
504 1 6665 6664 6666
505 1 6668 6667 6669
506 1 6671 6670 6672
507 1 6674 6673 6675
508 1 6677 6676 6678
509 1 6680 6679 6681
510 1 6683 6682 6684
511 1 6686 6685 6687
512 1 6689 6688 6690
513 1 6692 6691 6693
514 1 6695 6694 6696
515 1 6698 6697 6699
516 1 6701 6700 6702
517 1 6704 6703 6705
518 1 6707 6706 6708
519 1 6710 6709 6711
520 1 6713 6712 6714
521 1 6716 6715 6717
522 1 6719 6718 6720
523 1 6722 6721 6723
524 1 6725 6724 6726
525 1 6728 6727 6729
526 1 6731 6730 6732
527 1 6734 6733 6735
528 1 6737 6736 6738
529 1 6740 6739 6741
530 1 6743 6742 6744
531 1 6746 6745 6747
532 1 6749 6748 6750
533 1 6752 6751 6753
534 1 6755 6754 6756
535 1 6758 6757 6759
536 1 6761 6760 6762
537 1 6764 6763 6765
538 1 6767 6766 6768
539 1 6770 6769 6771
540 1 6773 6772 6774
541 1 6776 6775 6777
542 1 6779 6778 6780
543 1 6782 6781 6783
544 1 6785 6784 6786
545 1 6788 6787 6789
546 1 6791 6790 6792
547 1 6794 6793 6795
548 1 6797 6796 6798
549 1 6800 6799 6801
550 1 6803 6802 6804
551 1 6806 6805 6807
552 1 6809 6808 6810
553 1 6812 6811 6813
554 1 6815 6814 6816
555 1 6818 6817 6819
556 1 6821 6820 6822
557 1 6824 6823 6825
558 1 6827 6826 6828
559 1 6830 6829 6831
560 1 6833 6832 6834
561 1 6836 6835 6837
562 1 6839 6838 6840
563 1 6842 6841 6843
564 1 6845 6844 6846
565 1 6848 6847 6849
566 1 6851 6850 6852
567 1 6854 6853 6855
568 1 6857 6856 6858
569 1 6860 6859 6861
570 1 6863 6862 6864
571 1 6866 6865 6867
572 1 6869 6868 6870
573 1 6872 6871 6873
574 1 6875 6874 6876
575 1 6878 6877 6879
576 1 6881 6880 6882
577 1 6884 6883 6885
578 1 6887 6886 6888
579 1 6890 6889 6891
580 1 6893 6892 6894
581 1 6896 6895 6897
582 1 6899 6898 6900
583 1 6902 6901 6903
584 1 6905 6904 6906
585 1 6908 6907 6909
586 1 6911 6910 6912
587 1 6914 6913 6915
588 1 6917 6916 6918
589 1 6920 6919 6921
590 1 6923 6922 6924
591 1 6926 6925 6927
592 1 6929 6928 6930
593 1 6932 6931 6933
594 1 6935 6934 6936
595 1 6938 6937 6939
596 1 6941 6940 6942
597 1 6944 6943 6945
598 1 6947 6946 6948
599 1 6950 6949 6951
600 1 6953 6952 6954
601 1 6956 6955 6957
602 1 6959 6958 6960
603 1 6962 6961 6963
604 1 6965 6964 6966
605 1 6968 6967 6969
606 1 6971 6970 6972
607 1 6974 6973 6975
608 1 6977 6976 6978
609 1 6980 6979 6981
610 1 6983 6982 6984
611 1 6986 6985 6987
612 1 6989 6988 6990
613 1 6992 6991 6993
614 1 6995 6994 6996
615 1 6998 6997 6999
616 1 7001 7000 7002
617 1 7004 7003 7005
618 1 7007 7006 7008
619 1 7010 7009 7011
620 1 7013 7012 7014
621 1 7016 7015 7017
622 1 7019 7018 7020
623 1 7022 7021 7023
624 1 7025 7024 7026
625 1 7028 7027 7029
626 1 7031 7030 7032
627 1 7034 7033 7035
628 1 7037 7036 7038
629 1 7040 7039 7041
630 1 7043 7042 7044
631 1 7046 7045 7047
632 1 7049 7048 7050
633 1 7052 7051 7053
634 1 7055 7054 7056
635 1 7058 7057 7059
636 1 7061 7060 7062
637 1 7064 7063 7065
638 1 7067 7066 7068
639 1 7070 7069 7071
640 1 7073 7072 7074
641 1 7076 7075 7077
642 1 7079 7078 7080
643 1 7082 7081 7083
644 1 7085 7084 7086
645 1 7088 7087 7089
646 1 7091 7090 7092
647 1 7094 7093 7095
648 1 7097 7096 7098
649 1 7100 7099 7101
650 1 7103 7102 7104
651 1 7106 7105 7107
652 1 7109 7108 7110
653 1 7112 7111 7113
654 1 7115 7114 7116
655 1 7118 7117 7119
656 1 7121 7120 7122
657 1 7124 7123 7125
658 1 7127 7126 7128
659 1 7130 7129 7131
660 1 7133 7132 7134
661 1 7136 7135 7137
662 1 7139 7138 7140
663 1 7142 7141 7143
664 1 7145 7144 7146
665 1 7148 7147 7149
666 1 7151 7150 7152
667 1 7154 7153 7155
668 1 7157 7156 7158
669 1 7160 7159 7161
670 1 7163 7162 7164
671 1 7166 7165 7167
672 1 7169 7168 7170
673 1 7172 7171 7173
674 1 7175 7174 7176
675 1 7178 7177 7179
676 1 7181 7180 7182
677 1 7184 7183 7185
678 1 7187 7186 7188
679 1 7190 7189 7191
680 1 7193 7192 7194
681 1 7196 7195 7197
682 1 7199 7198 7200
683 1 7202 7201 7203
684 1 7205 7204 7206
685 1 7208 7207 7209
686 1 7211 7210 7212
687 1 7214 7213 7215
688 1 7217 7216 7218
689 1 7220 7219 7221
690 1 7223 7222 7224
691 1 7226 7225 7227
692 1 7229 7228 7230
693 1 7232 7231 7233
694 1 7235 7234 7236
695 1 7238 7237 7239
696 1 7241 7240 7242
697 1 7244 7243 7245
698 1 7247 7246 7248
699 1 7250 7249 7251
700 1 7253 7252 7254
701 1 7256 7255 7257
702 1 7259 7258 7260
703 1 7262 7261 7263
704 1 7265 7264 7266
705 1 7268 7267 7269
706 1 7271 7270 7272
707 1 7274 7273 7275
708 1 7277 7276 7278
709 1 7280 7279 7281
710 1 7283 7282 7284
711 1 7286 7285 7287
712 1 7289 7288 7290
713 1 7292 7291 7293
714 1 7295 7294 7296
715 1 7298 7297 7299
716 1 7301 7300 7302
717 1 7304 7303 7305
718 1 7307 7306 7308
719 1 7310 7309 7311
720 1 7313 7312 7314
721 1 7316 7315 7317
722 1 7319 7318 7320
723 1 7322 7321 7323
724 1 7325 7324 7326
725 1 7328 7327 7329
726 1 7331 7330 7332
727 1 7334 7333 7335
728 1 7337 7336 7338
729 1 7340 7339 7341
730 1 7343 7342 7344
731 1 7346 7345 7347
732 1 7349 7348 7350
733 1 7352 7351 7353
734 1 7355 7354 7356
735 1 7358 7357 7359
736 1 7361 7360 7362
737 1 7364 7363 7365
738 1 7367 7366 7368
739 1 7370 7369 7371
740 1 7373 7372 7374
741 1 7376 7375 7377
742 1 7379 7378 7380
743 1 7382 7381 7383
744 1 7385 7384 7386
745 1 7388 7387 7389
746 1 7391 7390 7392
747 1 7394 7393 7395
748 1 7397 7396 7398
749 1 7400 7399 7401
750 1 7403 7402 7404
751 1 7406 7405 7407
752 1 7409 7408 7410
753 1 7412 7411 7413
754 1 7415 7414 7416
755 1 7418 7417 7419
756 1 7421 7420 7422
757 1 7424 7423 7425
758 1 7427 7426 7428
759 1 7430 7429 7431
760 1 7433 7432 7434
761 1 7436 7435 7437
762 1 7439 7438 7440
763 1 7442 7441 7443
764 1 7445 7444 7446
765 1 7448 7447 7449
766 1 7451 7450 7452
767 1 7454 7453 7455
768 1 7457 7456 7458
769 1 7460 7459 7461
770 1 7463 7462 7464
771 1 7466 7465 7467
772 1 7469 7468 7470
773 1 7472 7471 7473
774 1 7475 7474 7476
775 1 7478 7477 7479
776 1 7481 7480 7482
777 1 7484 7483 7485
778 1 7487 7486 7488
779 1 7490 7489 7491
780 1 7493 7492 7494
781 1 7496 7495 7497
782 1 7499 7498 7500
783 1 7502 7501 7503
784 1 7505 7504 7506
785 1 7508 7507 7509
786 1 7511 7510 7512
787 1 7514 7513 7515
788 1 7517 7516 7518
789 1 7520 7519 7521
790 1 7523 7522 7524
791 1 7526 7525 7527
792 1 7529 7528 7530
793 1 7532 7531 7533
794 1 7535 7534 7536
795 1 7538 7537 7539
796 1 7541 7540 7542
797 1 7544 7543 7545
798 1 7547 7546 7548
799 1 7550 7549 7551
800 1 7553 7552 7554
801 1 7556 7555 7557
802 1 7559 7558 7560
803 1 7562 7561 7563
804 1 7565 7564 7566
805 1 7568 7567 7569
806 1 7571 7570 7572
807 1 7574 7573 7575
808 1 7577 7576 7578
809 1 7580 7579 7581
810 1 7583 7582 7584
811 1 7586 7585 7587
812 1 7589 7588 7590
813 1 7592 7591 7593
814 1 7595 7594 7596
815 1 7598 7597 7599
816 1 7601 7600 7602
817 1 7604 7603 7605
818 1 7607 7606 7608
819 1 7610 7609 7611
820 1 7613 7612 7614
821 1 7616 7615 7617
822 1 7619 7618 7620
823 1 7622 7621 7623
824 1 7625 7624 7626
825 1 7628 7627 7629
826 1 7631 7630 7632
827 1 7634 7633 7635
828 1 7637 7636 7638
829 1 7640 7639 7641
830 1 7643 7642 7644
831 1 7646 7645 7647
832 1 7649 7648 7650
833 1 7652 7651 7653
834 1 7655 7654 7656
835 1 7658 7657 7659
836 1 7661 7660 7662
837 1 7664 7663 7665
838 1 7667 7666 7668
839 1 7670 7669 7671
840 1 7673 7672 7674
841 1 7676 7675 7677
842 1 7679 7678 7680
843 1 7682 7681 7683
844 1 7685 7684 7686
845 1 7688 7687 7689
846 1 7691 7690 7692
847 1 7694 7693 7695
848 1 7697 7696 7698
849 1 7700 7699 7701
850 1 7703 7702 7704
851 1 7706 7705 7707
852 1 7709 7708 7710
853 1 7712 7711 7713
854 1 7715 7714 7716
855 1 7718 7717 7719
856 1 7721 7720 7722
857 1 7724 7723 7725
858 1 7727 7726 7728
859 1 7730 7729 7731
860 1 7733 7732 7734
861 1 7736 7735 7737
862 1 7739 7738 7740
863 1 7742 7741 7743
864 1 7745 7744 7746
865 1 7748 7747 7749
866 1 7751 7750 7752
867 1 7754 7753 7755
868 1 7757 7756 7758
869 1 7760 7759 7761
870 1 7763 7762 7764
871 1 7766 7765 7767
872 1 7769 7768 7770
873 1 7772 7771 7773
874 1 7775 7774 7776
875 1 7778 7777 7779
876 1 7781 7780 7782
877 1 7784 7783 7785
878 1 7787 7786 7788
879 1 7790 7789 7791
880 1 7793 7792 7794
881 1 7796 7795 7797
882 1 7799 7798 7800
883 1 7802 7801 7803
884 1 7805 7804 7806
885 1 7808 7807 7809
886 1 7811 7810 7812
887 1 7814 7813 7815
888 1 7817 7816 7818
889 1 7820 7819 7821
890 1 7823 7822 7824
891 1 7826 7825 7827
892 1 7829 7828 7830
893 1 7832 7831 7833
894 1 7835 7834 7836
895 1 7838 7837 7839
896 1 7841 7840 7842
897 1 7844 7843 7845
898 1 7847 7846 7848
899 1 7850 7849 7851
900 1 7853 7852 7854
901 1 7856 7855 7857
902 1 7859 7858 7860
903 1 7862 7861 7863
904 1 7865 7864 7866
905 1 7868 7867 7869
906 1 7871 7870 7872
907 1 7874 7873 7875
908 1 7877 7876 7878
909 1 7880 7879 7881
910 1 7883 7882 7884
911 1 7886 7885 7887
912 1 7889 7888 7890
913 1 7892 7891 7893
914 1 7895 7894 7896
915 1 7898 7897 7899
916 1 7901 7900 7902
917 1 7904 7903 7905
918 1 7907 7906 7908
919 1 7910 7909 7911
920 1 7913 7912 7914
921 1 7916 7915 7917
922 1 7919 7918 7920
923 1 7922 7921 7923
924 1 7925 7924 7926
925 1 7928 7927 7929
926 1 7931 7930 7932
927 1 7934 7933 7935
928 1 7937 7936 7938
929 1 7940 7939 7941
930 1 7943 7942 7944
931 1 7946 7945 7947
932 1 7949 7948 7950
933 1 7952 7951 7953
934 1 7955 7954 7956
935 1 7958 7957 7959
936 1 7961 7960 7962
937 1 7964 7963 7965
938 1 7967 7966 7968
939 1 7970 7969 7971
940 1 7973 7972 7974
941 1 7976 7975 7977
942 1 7979 7978 7980
943 1 7982 7981 7983
944 1 7985 7984 7986
945 1 7988 7987 7989
946 1 7991 7990 7992
947 1 7994 7993 7995
948 1 7997 7996 7998
949 1 8000 7999 8001
950 1 8003 8002 8004
951 1 8006 8005 8007
952 1 8009 8008 8010
953 1 8012 8011 8013
954 1 8015 8014 8016
955 1 8018 8017 8019
956 1 8021 8020 8022
957 1 8024 8023 8025
958 1 8027 8026 8028
959 1 8030 8029 8031
960 1 8033 8032 8034
961 1 8036 8035 8037
962 1 8039 8038 8040
963 1 8042 8041 8043
964 1 8045 8044 8046
965 1 8048 8047 8049
966 1 8051 8050 8052
967 1 8054 8053 8055
968 1 8057 8056 8058
969 1 8060 8059 8061
970 1 8063 8062 8064
971 1 8066 8065 8067
972 1 8069 8068 8070
973 1 8072 8071 8073
974 1 8075 8074 8076
975 1 8078 8077 8079
976 1 8081 8080 8082
977 1 8084 8083 8085
978 1 8087 8086 8088
979 1 8090 8089 8091
980 1 8093 8092 8094
981 1 8096 8095 8097
982 1 8099 8098 8100
983 1 8102 8101 8103
984 1 8105 8104 8106
985 1 8108 8107 8109
986 1 8111 8110 8112
987 1 8114 8113 8115
988 1 8117 8116 8118
989 1 8120 8119 8121
990 1 8123 8122 8124
991 1 8126 8125 8127
992 1 8129 8128 8130
993 1 8132 8131 8133
994 1 8135 8134 8136
995 1 8138 8137 8139
996 1 8141 8140 8142
997 1 8144 8143 8145
998 1 8147 8146 8148
999 1 8150 8149 8151
1000 1 8153 8152 8154
1001 1 8156 8155 8157
1002 1 8159 8158 8160
1003 1 8162 8161 8163
1004 1 8165 8164 8166
1005 1 8168 8167 8169
1006 1 8171 8170 8172
1007 1 8174 8173 8175
1008 1 8177 8176 8178
1009 1 8180 8179 8181
1010 1 8183 8182 8184
1011 1 8186 8185 8187
1012 1 8189 8188 8190
1013 1 8192 8191 8193
1014 1 8195 8194 8196
1015 1 8198 8197 8199
1016 1 8201 8200 8202
1017 1 8204 8203 8205
1018 1 8207 8206 8208
1019 1 8210 8209 8211
1020 1 8213 8212 8214
1021 1 8216 8215 8217
1022 1 8219 8218 8220
1023 1 8222 8221 8223
1024 1 8225 8224 8226
1025 1 8228 8227 8229
1026 1 8231 8230 8232
1027 1 8234 8233 8235
1028 1 8237 8236 8238
1029 1 8240 8239 8241
1030 1 8243 8242 8244
1031 1 8246 8245 8247
1032 1 8249 8248 8250
1033 1 8252 8251 8253
1034 1 8255 8254 8256
1035 1 8258 8257 8259
1036 1 8261 8260 8262
1037 1 8264 8263 8265
1038 1 8267 8266 8268
1039 1 8270 8269 8271
1040 1 8273 8272 8274
1041 1 8276 8275 8277
1042 1 8279 8278 8280
1043 1 8282 8281 8283
1044 1 8285 8284 8286
1045 1 8288 8287 8289
1046 1 8291 8290 8292
1047 1 8294 8293 8295
1048 1 8297 8296 8298
1049 1 8300 8299 8301
1050 1 8303 8302 8304
1051 1 8306 8305 8307
1052 1 8309 8308 8310
1053 1 8312 8311 8313
1054 1 8315 8314 8316
1055 1 8318 8317 8319
1056 1 8321 8320 8322
1057 1 8324 8323 8325
1058 1 8327 8326 8328
1059 1 8330 8329 8331
1060 1 8333 8332 8334
1061 1 8336 8335 8337
1062 1 8339 8338 8340
1063 1 8342 8341 8343
1064 1 8345 8344 8346
1065 1 8348 8347 8349
1066 1 8351 8350 8352
1067 1 8354 8353 8355
1068 1 8357 8356 8358
1069 1 8360 8359 8361
1070 1 8363 8362 8364
1071 1 8366 8365 8367
1072 1 8369 8368 8370
1073 1 8372 8371 8373
1074 1 8375 8374 8376
1075 1 8378 8377 8379
1076 1 8381 8380 8382
1077 1 8384 8383 8385
1078 1 8387 8386 8388
1079 1 8390 8389 8391
1080 1 8393 8392 8394
1081 1 8396 8395 8397
1082 1 8399 8398 8400
1083 1 8402 8401 8403
1084 1 8405 8404 8406
1085 1 8408 8407 8409
1086 1 8411 8410 8412
1087 1 8414 8413 8415
1088 1 8417 8416 8418
1089 1 8420 8419 8421
1090 1 8423 8422 8424
1091 1 8426 8425 8427
1092 1 8429 8428 8430
1093 1 8432 8431 8433
1094 1 8435 8434 8436
1095 1 8438 8437 8439
1096 1 8441 8440 8442
1097 1 8444 8443 8445
1098 1 8447 8446 8448
1099 1 8450 8449 8451
1100 1 8453 8452 8454
1101 1 8456 8455 8457
1102 1 8459 8458 8460
1103 1 8462 8461 8463
1104 1 8465 8464 8466
1105 1 8468 8467 8469
1106 1 8471 8470 8472
1107 1 8474 8473 8475
1108 1 8477 8476 8478
1109 1 8480 8479 8481
1110 1 8483 8482 8484
1111 1 8486 8485 8487
1112 1 8489 8488 8490
1113 1 8492 8491 8493
1114 1 8495 8494 8496
1115 1 8498 8497 8499
1116 1 8501 8500 8502
1117 1 8504 8503 8505
1118 1 8507 8506 8508
1119 1 8510 8509 8511
1120 1 8513 8512 8514
1121 1 8516 8515 8517
1122 1 8519 8518 8520
1123 1 8522 8521 8523
1124 1 8525 8524 8526
1125 1 8528 8527 8529
1126 1 8531 8530 8532
1127 1 8534 8533 8535
1128 1 8537 8536 8538
1129 1 8540 8539 8541
1130 1 8543 8542 8544
1131 1 8546 8545 8547
1132 1 8549 8548 8550
1133 1 8552 8551 8553
1134 1 8555 8554 8556
1135 1 8558 8557 8559
1136 1 8561 8560 8562
1137 1 8564 8563 8565
1138 1 8567 8566 8568
1139 1 8570 8569 8571
1140 1 8573 8572 8574
1141 1 8576 8575 8577
1142 1 8579 8578 8580
1143 1 8582 8581 8583
1144 1 8585 8584 8586
1145 1 8588 8587 8589
1146 1 8591 8590 8592
1147 1 8594 8593 8595
1148 1 8597 8596 8598
1149 1 8600 8599 8601
1150 1 8603 8602 8604
1151 1 8606 8605 8607
1152 1 8609 8608 8610
1153 1 8612 8611 8613
1154 1 8615 8614 8616
1155 1 8618 8617 8619
1156 1 8621 8620 8622
1157 1 8624 8623 8625
1158 1 8627 8626 8628
1159 1 8630 8629 8631
1160 1 8633 8632 8634
1161 1 8636 8635 8637
1162 1 8639 8638 8640
1163 1 8642 8641 8643
1164 1 8645 8644 8646
1165 1 8648 8647 8649
1166 1 8651 8650 8652
1167 1 8654 8653 8655
1168 1 8657 8656 8658
1169 1 8660 8659 8661
1170 1 8663 8662 8664
1171 1 8666 8665 8667
1172 1 8669 8668 8670
1173 1 8672 8671 8673
1174 1 8675 8674 8676
1175 1 8678 8677 8679
1176 1 8681 8680 8682
1177 1 8684 8683 8685
1178 1 8687 8686 8688
1179 1 8690 8689 8691
1180 1 8693 8692 8694
1181 1 8696 8695 8697
1182 1 8699 8698 8700
1183 1 8702 8701 8703
1184 1 8705 8704 8706
1185 1 8708 8707 8709
1186 1 8711 8710 8712
1187 1 8714 8713 8715
1188 1 8717 8716 8718
1189 1 8720 8719 8721
1190 1 8723 8722 8724
1191 1 8726 8725 8727
1192 1 8729 8728 8730
1193 1 8732 8731 8733
1194 1 8735 8734 8736
1195 1 8738 8737 8739
1196 1 8741 8740 8742
1197 1 8744 8743 8745
1198 1 8747 8746 8748
1199 1 8750 8749 8751
1200 1 8753 8752 8754
1201 1 8756 8755 8757
1202 1 8759 8758 8760
1203 1 8762 8761 8763
1204 1 8765 8764 8766
1205 1 8768 8767 8769
1206 1 8771 8770 8772
1207 1 8774 8773 8775
1208 1 8777 8776 8778
1209 1 8780 8779 8781
1210 1 8783 8782 8784
1211 1 8786 8785 8787
1212 1 8789 8788 8790
1213 1 8792 8791 8793
1214 1 8795 8794 8796
1215 1 8798 8797 8799
1216 1 8801 8800 8802
1217 1 8804 8803 8805
1218 1 8807 8806 8808
1219 1 8810 8809 8811
1220 1 8813 8812 8814
1221 1 8816 8815 8817
1222 1 8819 8818 8820
1223 1 8822 8821 8823
1224 1 8825 8824 8826
1225 1 8828 8827 8829
1226 1 8831 8830 8832
1227 1 8834 8833 8835
1228 1 8837 8836 8838
1229 1 8840 8839 8841
1230 1 8843 8842 8844
1231 1 8846 8845 8847
1232 1 8849 8848 8850
1233 1 8852 8851 8853
1234 1 8855 8854 8856
1235 1 8858 8857 8859
1236 1 8861 8860 8862
1237 1 8864 8863 8865
1238 1 8867 8866 8868
1239 1 8870 8869 8871
1240 1 8873 8872 8874
1241 1 8876 8875 8877
1242 1 8879 8878 8880
1243 1 8882 8881 8883
1244 1 8885 8884 8886
1245 1 8888 8887 8889
1246 1 8891 8890 8892
1247 1 8894 8893 8895
1248 1 8897 8896 8898
1249 1 8900 8899 8901
1250 1 8903 8902 8904
1251 1 8906 8905 8907
1252 1 8909 8908 8910
1253 1 8912 8911 8913
1254 1 8915 8914 8916
1255 1 8918 8917 8919
1256 1 8921 8920 8922
1257 1 8924 8923 8925
1258 1 8927 8926 8928
1259 1 8930 8929 8931
1260 1 8933 8932 8934
1261 1 8936 8935 8937
1262 1 8939 8938 8940
1263 1 8942 8941 8943
1264 1 8945 8944 8946
1265 1 8948 8947 8949
1266 1 8951 8950 8952
1267 1 8954 8953 8955
1268 1 8957 8956 8958
1269 1 8960 8959 8961
1270 1 8963 8962 8964
1271 1 8966 8965 8967
1272 1 8969 8968 8970
1273 1 8972 8971 8973
1274 1 8975 8974 8976
1275 1 8978 8977 8979
1276 1 8981 8980 8982
1277 1 8984 8983 8985
1278 1 8987 8986 8988
1279 1 8990 8989 8991
1280 1 8993 8992 8994
1281 1 8996 8995 8997
1282 1 8999 8998 9000
1283 1 9002 9001 9003
1284 1 9005 9004 9006
1285 1 9008 9007 9009
1286 1 9011 9010 9012
1287 1 9014 9013 9015
1288 1 9017 9016 9018
1289 1 9020 9019 9021
1290 1 9023 9022 9024
1291 1 9026 9025 9027
1292 1 9029 9028 9030
1293 1 9032 9031 9033
1294 1 9035 9034 9036
1295 1 9038 9037 9039
1296 1 9041 9040 9042
1297 1 9044 9043 9045
1298 1 9047 9046 9048
1299 1 9050 9049 9051
1300 1 9053 9052 9054
1301 1 9056 9055 9057
1302 1 9059 9058 9060
1303 1 9062 9061 9063
1304 1 9065 9064 9066
1305 1 9068 9067 9069
1306 1 9071 9070 9072
1307 1 9074 9073 9075
1308 1 9077 9076 9078
1309 1 9080 9079 9081
1310 1 9083 9082 9084
1311 1 9086 9085 9087
1312 1 9089 9088 9090
1313 1 9092 9091 9093
1314 1 9095 9094 9096
1315 1 9098 9097 9099
1316 1 9101 9100 9102
1317 1 9104 9103 9105
1318 1 9107 9106 9108
1319 1 9110 9109 9111
1320 1 9113 9112 9114
1321 1 9116 9115 9117
1322 1 9119 9118 9120
1323 1 9122 9121 9123
1324 1 9125 9124 9126
1325 1 9128 9127 9129
1326 1 9131 9130 9132
1327 1 9134 9133 9135
1328 1 9137 9136 9138
1329 1 9140 9139 9141
1330 1 9143 9142 9144
1331 1 9146 9145 9147
1332 1 9149 9148 9150
1333 1 9152 9151 9153
1334 1 9155 9154 9156
1335 1 9158 9157 9159
1336 1 9161 9160 9162
1337 1 9164 9163 9165
1338 1 9167 9166 9168
1339 1 9170 9169 9171
1340 1 9173 9172 9174
1341 1 9176 9175 9177
1342 1 9179 9178 9180
1343 1 9182 9181 9183
1344 1 9185 9184 9186
1345 1 9188 9187 9189
1346 1 9191 9190 9192
1347 1 9194 9193 9195
1348 1 9197 9196 9198
1349 1 9200 9199 9201
1350 1 9203 9202 9204
1351 1 9206 9205 9207
1352 1 9209 9208 9210
1353 1 9212 9211 9213
1354 1 9215 9214 9216
1355 1 9218 9217 9219
1356 1 9221 9220 9222
1357 1 9224 9223 9225
1358 1 9227 9226 9228
1359 1 9230 9229 9231
1360 1 9233 9232 9234
1361 1 9236 9235 9237
1362 1 9239 9238 9240
1363 1 9242 9241 9243
1364 1 9245 9244 9246
1365 1 9248 9247 9249
1366 1 9251 9250 9252
1367 1 9254 9253 9255
1368 1 9257 9256 9258
1369 1 9260 9259 9261
1370 1 9263 9262 9264
1371 1 9266 9265 9267
1372 1 9269 9268 9270
1373 1 9272 9271 9273
1374 1 9275 9274 9276
1375 1 9278 9277 9279
1376 1 9281 9280 9282
1377 1 9284 9283 9285
1378 1 9287 9286 9288
1379 1 9290 9289 9291
1380 1 9293 9292 9294
1381 1 9296 9295 9297
1382 1 9299 9298 9300
1383 1 9302 9301 9303
1384 1 9305 9304 9306
1385 1 9308 9307 9309
1386 1 9311 9310 9312
1387 1 9314 9313 9315
1388 1 9317 9316 9318
1389 1 9320 9319 9321
1390 1 9323 9322 9324
1391 1 9326 9325 9327
1392 1 9329 9328 9330
1393 1 9332 9331 9333
1394 1 9335 9334 9336
1395 1 9338 9337 9339
1396 1 9341 9340 9342
1397 1 9344 9343 9345
1398 1 9347 9346 9348
1399 1 9350 9349 9351
1400 1 9353 9352 9354
1401 1 9356 9355 9357
1402 1 9359 9358 9360
1403 1 9362 9361 9363
1404 1 9365 9364 9366
