# graphene-slit-nacl — generated by NanoMD Designer

units        real
atom_style   full
boundary     p p f

read_data    system.data

pair_style   lj/cut/coul/long 10.0
pair_modify  mix geometric
kspace_style pppm 1e-4
special_bonds lj 0.0 0.0 0.0 coul 0.0 0.0 0.0

# --- pair coefficients (OPLS-AA / TIP3P, real units) ---
pair_coeff 1 1 0.0700 3.5500
pair_coeff 2 2 0.1520 3.1510
pair_coeff 3 3 0.0000 1.0000
pair_coeff 4 4 0.0010 4.0700
pair_coeff 5 5 0.7100 4.0200

bond_style   zero
angle_style  zero

# --- groups ---
group        wall type 1
group        fluid subtract all wall

# --- membranes are rigid ---
velocity     wall set 0.0 0.0 0.0
fix          fixwall wall setforce 0.0 0.0 0.0

# --- rigid water ---
fix          shake fluid shake 1e-4 100 0 0 1 1

# --- thermostat on y/z only (exclude flow direction x) ---
compute      tpartial fluid temp/partial 0 1 1
fix          nvt fluid nvt temp 300.0 300.0 100.0
fix_modify   nvt temp tpartial

# --- streaming drive along +x (gravity method) ---
fix          drive fluid addforce 0.000500 0.0 0.0

thermo       100
thermo_style custom step temp press pe ke
thermo_modify flush yes

# --- equilibration ---
minimize     1e-6 1e-8 1000 10000
run          1000

# --- production ---
reset_timestep 0
dump         traj all custom 1000 dump.lammpstrj id type x y z vx vy vz
run          50000
