LAMMPS data file from NanoMD Designer

8550 atoms
2808 bonds
1404 angles

5 atom types
1 bond types
1 angle types

0 150.000000 xlo xhi
0 40.000000 ylo yhi
0 20.000000 zlo zhi

Masses

1 12.011
2 15.999
3 1.008
4 22.990
5 35.450

Atoms  # full

1 0 1 0.000000 0.000000 0.000000 5.000000
2 0 1 0.000000 1.229756 0.710000 5.000000
3 0 1 0.000000 1.229756 2.130000 5.000000
4 0 1 0.000000 2.459512 2.840000 5.000000
5 0 1 0.000000 2.459512 4.260000 5.000000
6 0 1 0.000000 3.689268 4.970000 5.000000
7 0 1 0.000000 3.689268 6.390000 5.000000
8 0 1 0.000000 4.919024 7.100000 5.000000
9 0 1 0.000000 4.919024 8.520000 5.000000
10 0 1 0.000000 6.148780 9.230000 5.000000
11 0 1 0.000000 6.148780 10.650000 5.000000
12 0 1 0.000000 7.378536 11.360000 5.000000
13 0 1 0.000000 7.378536 12.780000 5.000000
14 0 1 0.000000 8.608293 13.490000 5.000000
15 0 1 0.000000 8.608293 14.910000 5.000000
16 0 1 0.000000 9.838049 15.620000 5.000000
17 0 1 0.000000 9.838049 17.040000 5.000000
18 0 1 0.000000 11.067805 17.750000 5.000000
19 0 1 0.000000 11.067805 19.170000 5.000000
20 0 1 0.000000 12.297561 19.880000 5.000000
21 0 1 0.000000 12.297561 21.300000 5.000000
22 0 1 0.000000 13.527317 22.010000 5.000000
23 0 1 0.000000 13.527317 23.430000 5.000000
24 0 1 0.000000 14.757073 24.140000 5.000000
25 0 1 0.000000 14.757073 25.560000 5.000000
26 0 1 0.000000 15.986829 26.270000 5.000000
27 0 1 0.000000 15.986829 27.690000 5.000000
28 0 1 0.000000 17.216585 28.400000 5.000000
29 0 1 0.000000 17.216585 29.820000 5.000000
30 0 1 0.000000 18.446341 30.530000 5.000000
31 0 1 0.000000 18.446341 31.950000 5.000000
32 0 1 0.000000 19.676097 32.660000 5.000000
33 0 1 0.000000 19.676097 34.080000 5.000000
34 0 1 0.000000 20.905853 34.790000 5.000000
35 0 1 0.000000 20.905853 36.210000 5.000000
36 0 1 0.000000 22.135609 36.920000 5.000000
37 0 1 0.000000 22.135609 38.340000 5.000000
38 0 1 0.000000 23.365365 39.050000 5.000000
39 0 1 0.000000 2.459512 0.000000 5.000000
40 0 1 0.000000 3.689268 0.710000 5.000000
41 0 1 0.000000 3.689268 2.130000 5.000000
42 0 1 0.000000 4.919024 2.840000 5.000000
43 0 1 0.000000 4.919024 4.260000 5.000000
44 0 1 0.000000 6.148780 4.970000 5.000000
45 0 1 0.000000 6.148780 6.390000 5.000000
46 0 1 0.000000 7.378536 7.100000 5.000000
47 0 1 0.000000 7.378536 8.520000 5.000000
48 0 1 0.000000 8.608293 9.230000 5.000000
49 0 1 0.000000 8.608293 10.650000 5.000000
50 0 1 0.000000 9.838049 11.360000 5.000000
51 0 1 0.000000 9.838049 12.780000 5.000000
52 0 1 0.000000 11.067805 13.490000 5.000000
53 0 1 0.000000 11.067805 14.910000 5.000000
54 0 1 0.000000 12.297561 15.620000 5.000000
55 0 1 0.000000 12.297561 17.040000 5.000000
56 0 1 0.000000 13.527317 17.750000 5.000000
57 0 1 0.000000 13.527317 19.170000 5.000000
58 0 1 0.000000 14.757073 19.880000 5.000000
59 0 1 0.000000 14.757073 21.300000 5.000000
60 0 1 0.000000 15.986829 22.010000 5.000000
61 0 1 0.000000 15.986829 23.430000 5.000000
62 0 1 0.000000 17.216585 24.140000 5.000000
63 0 1 0.000000 17.216585 25.560000 5.000000
64 0 1 0.000000 18.446341 26.270000 5.000000
65 0 1 0.000000 18.446341 27.690000 5.000000
66 0 1 0.000000 19.676097 28.400000 5.000000
67 0 1 0.000000 19.676097 29.820000 5.000000
68 0 1 0.000000 20.905853 30.530000 5.000000
69 0 1 0.000000 20.905853 31.950000 5.000000
70 0 1 0.000000 22.135609 32.660000 5.000000
71 0 1 0.000000 22.135609 34.080000 5.000000
72 0 1 0.000000 23.365365 34.790000 5.000000
73 0 1 0.000000 23.365365 36.210000 5.000000
74 0 1 0.000000 24.595121 36.920000 5.000000
75 0 1 0.000000 24.595121 38.340000 5.000000
76 0 1 0.000000 25.824878 39.050000 5.000000
77 0 1 0.000000 4.919024 0.000000 5.000000
78 0 1 0.000000 6.148780 0.710000 5.000000
79 0 1 0.000000 6.148780 2.130000 5.000000
80 0 1 0.000000 7.378536 2.840000 5.000000
81 0 1 0.000000 7.378536 4.260000 5.000000
82 0 1 0.000000 8.608293 4.970000 5.000000
83 0 1 0.000000 8.608293 6.390000 5.000000
84 0 1 0.000000 9.838049 7.100000 5.000000
85 0 1 0.000000 9.838049 8.520000 5.000000
86 0 1 0.000000 11.067805 9.230000 5.000000
87 0 1 0.000000 11.067805 10.650000 5.000000
88 0 1 0.000000 12.297561 11.360000 5.000000
89 0 1 0.000000 12.297561 12.780000 5.000000
90 0 1 0.000000 13.527317 13.490000 5.000000
91 0 1 0.000000 13.527317 14.910000 5.000000
92 0 1 0.000000 14.757073 15.620000 5.000000
93 0 1 0.000000 14.757073 17.040000 5.000000
94 0 1 0.000000 15.986829 17.750000 5.000000
95 0 1 0.000000 15.986829 19.170000 5.000000
96 0 1 0.000000 17.216585 19.880000 5.000000
97 0 1 0.000000 17.216585 21.300000 5.000000
98 0 1 0.000000 18.446341 22.010000 5.000000
99 0 1 0.000000 18.446341 23.430000 5.000000
100 0 1 0.000000 19.676097 24.140000 5.000000
101 0 1 0.000000 19.676097 25.560000 5.000000
102 0 1 0.000000 20.905853 26.270000 5.000000
103 0 1 0.000000 20.905853 27.690000 5.000000
104 0 1 0.000000 22.135609 28.400000 5.000000
105 0 1 0.000000 22.135609 29.820000 5.000000
106 0 1 0.000000 23.365365 30.530000 5.000000
107 0 1 0.000000 23.365365 31.950000 5.000000
108 0 1 0.000000 24.595121 32.660000 5.000000
109 0 1 0.000000 24.595121 34.080000 5.000000
110 0 1 0.000000 25.824878 34.790000 5.000000
111 0 1 0.000000 25.824878 36.210000 5.000000
112 0 1 0.000000 27.054634 36.920000 5.000000
113 0 1 0.000000 27.054634 38.340000 5.000000
114 0 1 0.000000 28.284390 39.050000 5.000000
115 0 1 0.000000 7.378536 0.000000 5.000000
116 0 1 0.000000 8.608293 0.710000 5.000000
117 0 1 0.000000 8.608293 2.130000 5.000000
118 0 1 0.000000 9.838049 2.840000 5.000000
119 0 1 0.000000 9.838049 4.260000 5.000000
120 0 1 0.000000 11.067805 4.970000 5.000000
121 0 1 0.000000 11.067805 6.390000 5.000000
122 0 1 0.000000 12.297561 7.100000 5.000000
123 0 1 0.000000 12.297561 8.520000 5.000000
124 0 1 0.000000 13.527317 9.230000 5.000000
125 0 1 0.000000 13.527317 10.650000 5.000000
126 0 1 0.000000 14.757073 11.360000 5.000000
127 0 1 0.000000 14.757073 12.780000 5.000000
128 0 1 0.000000 15.986829 13.490000 5.000000
129 0 1 0.000000 15.986829 14.910000 5.000000
130 0 1 0.000000 17.216585 15.620000 5.000000
131 0 1 0.000000 17.216585 17.040000 5.000000
132 0 1 0.000000 18.446341 17.750000 5.000000
133 0 1 0.000000 18.446341 19.170000 5.000000
134 0 1 0.000000 19.676097 19.880000 5.000000
135 0 1 0.000000 19.676097 21.300000 5.000000
136 0 1 0.000000 20.905853 22.010000 5.000000
137 0 1 0.000000 20.905853 23.430000 5.000000
138 0 1 0.000000 22.135609 24.140000 5.000000
139 0 1 0.000000 22.135609 25.560000 5.000000
140 0 1 0.000000 23.365365 26.270000 5.000000
141 0 1 0.000000 23.365365 27.690000 5.000000
142 0 1 0.000000 24.595121 28.400000 5.000000
143 0 1 0.000000 24.595121 29.820000 5.000000
144 0 1 0.000000 25.824878 30.530000 5.000000
145 0 1 0.000000 25.824878 31.950000 5.000000
146 0 1 0.000000 27.054634 32.660000 5.000000
147 0 1 0.000000 27.054634 34.080000 5.000000
148 0 1 0.000000 28.284390 34.790000 5.000000
149 0 1 0.000000 28.284390 36.210000 5.000000
150 0 1 0.000000 29.514146 36.920000 5.000000
151 0 1 0.000000 29.514146 38.340000 5.000000
152 0 1 0.000000 30.743902 39.050000 5.000000
153 0 1 0.000000 9.838049 0.000000 5.000000
154 0 1 0.000000 11.067805 0.710000 5.000000
155 0 1 0.000000 11.067805 2.130000 5.000000
156 0 1 0.000000 12.297561 2.840000 5.000000
157 0 1 0.000000 12.297561 4.260000 5.000000
158 0 1 0.000000 13.527317 4.970000 5.000000
159 0 1 0.000000 13.527317 6.390000 5.000000
160 0 1 0.000000 14.757073 7.100000 5.000000
161 0 1 0.000000 14.757073 8.520000 5.000000
162 0 1 0.000000 15.986829 9.230000 5.000000
163 0 1 0.000000 15.986829 10.650000 5.000000
164 0 1 0.000000 17.216585 11.360000 5.000000
165 0 1 0.000000 17.216585 12.780000 5.000000
166 0 1 0.000000 18.446341 13.490000 5.000000
167 0 1 0.000000 18.446341 14.910000 5.000000
168 0 1 0.000000 19.676097 15.620000 5.000000
169 0 1 0.000000 19.676097 17.040000 5.000000
170 0 1 0.000000 20.905853 17.750000 5.000000
171 0 1 0.000000 20.905853 19.170000 5.000000
172 0 1 0.000000 22.135609 19.880000 5.000000
173 0 1 0.000000 22.135609 21.300000 5.000000
174 0 1 0.000000 23.365365 22.010000 5.000000
175 0 1 0.000000 23.365365 23.430000 5.000000
176 0 1 0.000000 24.595121 24.140000 5.000000
177 0 1 0.000000 24.595121 25.560000 5.000000
178 0 1 0.000000 25.824878 26.270000 5.000000
179 0 1 0.000000 25.824878 27.690000 5.000000
180 0 1 0.000000 27.054634 28.400000 5.000000
181 0 1 0.000000 27.054634 29.820000 5.000000
182 0 1 0.000000 28.284390 30.530000 5.000000
183 0 1 0.000000 28.284390 31.950000 5.000000
184 0 1 0.000000 29.514146 32.660000 5.000000
185 0 1 0.000000 29.514146 34.080000 5.000000
186 0 1 0.000000 30.743902 34.790000 5.000000
187 0 1 0.000000 30.743902 36.210000 5.000000
188 0 1 0.000000 31.973658 36.920000 5.000000
189 0 1 0.000000 31.973658 38.340000 5.000000
190 0 1 0.000000 33.203414 39.050000 5.000000
191 0 1 0.000000 12.297561 0.000000 5.000000
192 0 1 0.000000 13.527317 0.710000 5.000000
193 0 1 0.000000 13.527317 2.130000 5.000000
194 0 1 0.000000 14.757073 2.840000 5.000000
195 0 1 0.000000 14.757073 4.260000 5.000000
196 0 1 0.000000 15.986829 4.970000 5.000000
197 0 1 0.000000 15.986829 6.390000 5.000000
198 0 1 0.000000 17.216585 7.100000 5.000000
199 0 1 0.000000 17.216585 8.520000 5.000000
200 0 1 0.000000 18.446341 9.230000 5.000000
201 0 1 0.000000 18.446341 10.650000 5.000000
202 0 1 0.000000 19.676097 11.360000 5.000000
203 0 1 0.000000 19.676097 12.780000 5.000000
204 0 1 0.000000 20.905853 13.490000 5.000000
205 0 1 0.000000 20.905853 14.910000 5.000000
206 0 1 0.000000 22.135609 15.620000 5.000000
207 0 1 0.000000 22.135609 17.040000 5.000000
208 0 1 0.000000 23.365365 17.750000 5.000000
209 0 1 0.000000 23.365365 19.170000 5.000000
210 0 1 0.000000 24.595121 19.880000 5.000000
211 0 1 0.000000 24.595121 21.300000 5.000000
212 0 1 0.000000 25.824878 22.010000 5.000000
213 0 1 0.000000 25.824878 23.430000 5.000000
214 0 1 0.000000 27.054634 24.140000 5.000000
215 0 1 0.000000 27.054634 25.560000 5.000000
216 0 1 0.000000 28.284390 26.270000 5.000000
217 0 1 0.000000 28.284390 27.690000 5.000000
218 0 1 0.000000 29.514146 28.400000 5.000000
219 0 1 0.000000 29.514146 29.820000 5.000000
220 0 1 0.000000 30.743902 30.530000 5.000000
221 0 1 0.000000 30.743902 31.950000 5.000000
222 0 1 0.000000 31.973658 32.660000 5.000000
223 0 1 0.000000 31.973658 34.080000 5.000000
224 0 1 0.000000 33.203414 34.790000 5.000000
225 0 1 0.000000 33.203414 36.210000 5.000000
226 0 1 0.000000 34.433170 36.920000 5.000000
227 0 1 0.000000 34.433170 38.340000 5.000000
228 0 1 0.000000 35.662926 39.050000 5.000000
229 0 1 0.000000 14.757073 0.000000 5.000000
230 0 1 0.000000 15.986829 0.710000 5.000000
231 0 1 0.000000 15.986829 2.130000 5.000000
232 0 1 0.000000 17.216585 2.840000 5.000000
233 0 1 0.000000 17.216585 4.260000 5.000000
234 0 1 0.000000 18.446341 4.970000 5.000000
235 0 1 0.000000 18.446341 6.390000 5.000000
236 0 1 0.000000 19.676097 7.100000 5.000000
237 0 1 0.000000 19.676097 8.520000 5.000000
238 0 1 0.000000 20.905853 9.230000 5.000000
239 0 1 0.000000 20.905853 10.650000 5.000000
240 0 1 0.000000 22.135609 11.360000 5.000000
241 0 1 0.000000 22.135609 12.780000 5.000000
242 0 1 0.000000 23.365365 13.490000 5.000000
243 0 1 0.000000 23.365365 14.910000 5.000000
244 0 1 0.000000 24.595121 15.620000 5.000000
245 0 1 0.000000 24.595121 17.040000 5.000000
246 0 1 0.000000 25.824878 17.750000 5.000000
247 0 1 0.000000 25.824878 19.170000 5.000000
248 0 1 0.000000 27.054634 19.880000 5.000000
249 0 1 0.000000 27.054634 21.300000 5.000000
250 0 1 0.000000 28.284390 22.010000 5.000000
251 0 1 0.000000 28.284390 23.430000 5.000000
252 0 1 0.000000 29.514146 24.140000 5.000000
253 0 1 0.000000 29.514146 25.560000 5.000000
254 0 1 0.000000 30.743902 26.270000 5.000000
255 0 1 0.000000 30.743902 27.690000 5.000000
256 0 1 0.000000 31.973658 28.400000 5.000000
257 0 1 0.000000 31.973658 29.820000 5.000000
258 0 1 0.000000 33.203414 30.530000 5.000000
259 0 1 0.000000 33.203414 31.950000 5.000000
260 0 1 0.000000 34.433170 32.660000 5.000000
261 0 1 0.000000 34.433170 34.080000 5.000000
262 0 1 0.000000 35.662926 34.790000 5.000000
263 0 1 0.000000 35.662926 36.210000 5.000000
264 0 1 0.000000 36.892682 36.920000 5.000000
265 0 1 0.000000 36.892682 38.340000 5.000000
266 0 1 0.000000 38.122438 39.050000 5.000000
267 0 1 0.000000 17.216585 0.000000 5.000000
268 0 1 0.000000 18.446341 0.710000 5.000000
269 0 1 0.000000 18.446341 2.130000 5.000000
270 0 1 0.000000 19.676097 2.840000 5.000000
271 0 1 0.000000 19.676097 4.260000 5.000000
272 0 1 0.000000 20.905853 4.970000 5.000000
273 0 1 0.000000 20.905853 6.390000 5.000000
274 0 1 0.000000 22.135609 7.100000 5.000000
275 0 1 0.000000 22.135609 8.520000 5.000000
276 0 1 0.000000 23.365365 9.230000 5.000000
277 0 1 0.000000 23.365365 10.650000 5.000000
278 0 1 0.000000 24.595121 11.360000 5.000000
279 0 1 0.000000 24.595121 12.780000 5.000000
280 0 1 0.000000 25.824878 13.490000 5.000000
281 0 1 0.000000 25.824878 14.910000 5.000000
282 0 1 0.000000 27.054634 15.620000 5.000000
283 0 1 0.000000 27.054634 17.040000 5.000000
284 0 1 0.000000 28.284390 17.750000 5.000000
285 0 1 0.000000 28.284390 19.170000 5.000000
286 0 1 0.000000 29.514146 19.880000 5.000000
287 0 1 0.000000 29.514146 21.300000 5.000000
288 0 1 0.000000 30.743902 22.010000 5.000000
289 0 1 0.000000 30.743902 23.430000 5.000000
290 0 1 0.000000 31.973658 24.140000 5.000000
291 0 1 0.000000 31.973658 25.560000 5.000000
292 0 1 0.000000 33.203414 26.270000 5.000000
293 0 1 0.000000 33.203414 27.690000 5.000000
294 0 1 0.000000 34.433170 28.400000 5.000000
295 0 1 0.000000 34.433170 29.820000 5.000000
296 0 1 0.000000 35.662926 30.530000 5.000000
297 0 1 0.000000 35.662926 31.950000 5.000000
298 0 1 0.000000 36.892682 32.660000 5.000000
299 0 1 0.000000 36.892682 34.080000 5.000000
300 0 1 0.000000 38.122438 34.790000 5.000000
301 0 1 0.000000 38.122438 36.210000 5.000000
302 0 1 0.000000 39.352194 36.920000 5.000000
303 0 1 0.000000 39.352194 38.340000 5.000000
304 0 1 0.000000 40.581950 39.050000 5.000000
305 0 1 0.000000 19.676097 0.000000 5.000000
306 0 1 0.000000 20.905853 0.710000 5.000000
307 0 1 0.000000 20.905853 2.130000 5.000000
308 0 1 0.000000 22.135609 2.840000 5.000000
309 0 1 0.000000 22.135609 4.260000 5.000000
310 0 1 0.000000 23.365365 4.970000 5.000000
311 0 1 0.000000 23.365365 6.390000 5.000000
312 0 1 0.000000 24.595121 7.100000 5.000000
313 0 1 0.000000 24.595121 8.520000 5.000000
314 0 1 0.000000 25.824878 9.230000 5.000000
315 0 1 0.000000 25.824878 10.650000 5.000000
316 0 1 0.000000 27.054634 11.360000 5.000000
317 0 1 0.000000 27.054634 12.780000 5.000000
318 0 1 0.000000 28.284390 13.490000 5.000000
319 0 1 0.000000 28.284390 14.910000 5.000000
320 0 1 0.000000 29.514146 15.620000 5.000000
321 0 1 0.000000 29.514146 17.040000 5.000000
322 0 1 0.000000 30.743902 17.750000 5.000000
323 0 1 0.000000 30.743902 19.170000 5.000000
324 0 1 0.000000 31.973658 19.880000 5.000000
325 0 1 0.000000 31.973658 21.300000 5.000000
326 0 1 0.000000 33.203414 22.010000 5.000000
327 0 1 0.000000 33.203414 23.430000 5.000000
328 0 1 0.000000 34.433170 24.140000 5.000000
329 0 1 0.000000 34.433170 25.560000 5.000000
330 0 1 0.000000 35.662926 26.270000 5.000000
331 0 1 0.000000 35.662926 27.690000 5.000000
332 0 1 0.000000 36.892682 28.400000 5.000000
333 0 1 0.000000 36.892682 29.820000 5.000000
334 0 1 0.000000 38.122438 30.530000 5.000000
335 0 1 0.000000 38.122438 31.950000 5.000000
336 0 1 0.000000 39.352194 32.660000 5.000000
337 0 1 0.000000 39.352194 34.080000 5.000000
338 0 1 0.000000 40.581950 34.790000 5.000000
339 0 1 0.000000 40.581950 36.210000 5.000000
340 0 1 0.000000 41.811706 36.920000 5.000000
341 0 1 0.000000 41.811706 38.340000 5.000000
342 0 1 0.000000 43.041463 39.050000 5.000000
343 0 1 0.000000 22.135609 0.000000 5.000000
344 0 1 0.000000 23.365365 0.710000 5.000000
345 0 1 0.000000 23.365365 2.130000 5.000000
346 0 1 0.000000 24.595121 2.840000 5.000000
347 0 1 0.000000 24.595121 4.260000 5.000000
348 0 1 0.000000 25.824878 4.970000 5.000000
349 0 1 0.000000 25.824878 6.390000 5.000000
350 0 1 0.000000 27.054634 7.100000 5.000000
351 0 1 0.000000 27.054634 8.520000 5.000000
352 0 1 0.000000 28.284390 9.230000 5.000000
353 0 1 0.000000 28.284390 10.650000 5.000000
354 0 1 0.000000 29.514146 11.360000 5.000000
355 0 1 0.000000 29.514146 12.780000 5.000000
356 0 1 0.000000 30.743902 13.490000 5.000000
357 0 1 0.000000 30.743902 14.910000 5.000000
358 0 1 0.000000 31.973658 15.620000 5.000000
359 0 1 0.000000 31.973658 17.040000 5.000000
360 0 1 0.000000 33.203414 17.750000 5.000000
361 0 1 0.000000 33.203414 19.170000 5.000000
362 0 1 0.000000 34.433170 19.880000 5.000000
363 0 1 0.000000 34.433170 21.300000 5.000000
364 0 1 0.000000 35.662926 22.010000 5.000000
365 0 1 0.000000 35.662926 23.430000 5.000000
366 0 1 0.000000 36.892682 24.140000 5.000000
367 0 1 0.000000 36.892682 25.560000 5.000000
368 0 1 0.000000 38.122438 26.270000 5.000000
369 0 1 0.000000 38.122438 27.690000 5.000000
370 0 1 0.000000 39.352194 28.400000 5.000000
371 0 1 0.000000 39.352194 29.820000 5.000000
372 0 1 0.000000 40.581950 30.530000 5.000000
373 0 1 0.000000 40.581950 31.950000 5.000000
374 0 1 0.000000 41.811706 32.660000 5.000000
375 0 1 0.000000 41.811706 34.080000 5.000000
376 0 1 0.000000 43.041463 34.790000 5.000000
377 0 1 0.000000 43.041463 36.210000 5.000000
378 0 1 0.000000 44.271219 36.920000 5.000000
379 0 1 0.000000 44.271219 38.340000 5.000000
380 0 1 0.000000 45.500975 39.050000 5.000000
381 0 1 0.000000 24.595121 0.000000 5.000000
382 0 1 0.000000 25.824878 0.710000 5.000000
383 0 1 0.000000 25.824878 2.130000 5.000000
384 0 1 0.000000 27.054634 2.840000 5.000000
385 0 1 0.000000 27.054634 4.260000 5.000000
386 0 1 0.000000 28.284390 4.970000 5.000000
387 0 1 0.000000 28.284390 6.390000 5.000000
388 0 1 0.000000 29.514146 7.100000 5.000000
389 0 1 0.000000 29.514146 8.520000 5.000000
390 0 1 0.000000 30.743902 9.230000 5.000000
391 0 1 0.000000 30.743902 10.650000 5.000000
392 0 1 0.000000 31.973658 11.360000 5.000000
393 0 1 0.000000 31.973658 12.780000 5.000000
394 0 1 0.000000 33.203414 13.490000 5.000000
395 0 1 0.000000 33.203414 14.910000 5.000000
396 0 1 0.000000 34.433170 15.620000 5.000000
397 0 1 0.000000 34.433170 17.040000 5.000000
398 0 1 0.000000 35.662926 17.750000 5.000000
399 0 1 0.000000 35.662926 19.170000 5.000000
400 0 1 0.000000 36.892682 19.880000 5.000000
401 0 1 0.000000 36.892682 21.300000 5.000000
402 0 1 0.000000 38.122438 22.010000 5.000000
403 0 1 0.000000 38.122438 23.430000 5.000000
404 0 1 0.000000 39.352194 24.140000 5.000000
405 0 1 0.000000 39.352194 25.560000 5.000000
406 0 1 0.000000 40.581950 26.270000 5.000000
407 0 1 0.000000 40.581950 27.690000 5.000000
408 0 1 0.000000 41.811706 28.400000 5.000000
409 0 1 0.000000 41.811706 29.820000 5.000000
410 0 1 0.000000 43.041463 30.530000 5.000000
411 0 1 0.000000 43.041463 31.950000 5.000000
412 0 1 0.000000 44.271219 32.660000 5.000000
413 0 1 0.000000 44.271219 34.080000 5.000000
414 0 1 0.000000 45.500975 34.790000 5.000000
415 0 1 0.000000 45.500975 36.210000 5.000000
416 0 1 0.000000 46.730731 36.920000 5.000000
417 0 1 0.000000 46.730731 38.340000 5.000000
418 0 1 0.000000 47.960487 39.050000 5.000000
419 0 1 0.000000 27.054634 0.000000 5.000000
420 0 1 0.000000 28.284390 0.710000 5.000000
421 0 1 0.000000 28.284390 2.130000 5.000000
422 0 1 0.000000 29.514146 2.840000 5.000000
423 0 1 0.000000 29.514146 4.260000 5.000000
424 0 1 0.000000 30.743902 4.970000 5.000000
425 0 1 0.000000 30.743902 6.390000 5.000000
426 0 1 0.000000 31.973658 7.100000 5.000000
427 0 1 0.000000 31.973658 8.520000 5.000000
428 0 1 0.000000 33.203414 9.230000 5.000000
429 0 1 0.000000 33.203414 10.650000 5.000000
430 0 1 0.000000 34.433170 11.360000 5.000000
431 0 1 0.000000 34.433170 12.780000 5.000000
432 0 1 0.000000 35.662926 13.490000 5.000000
433 0 1 0.000000 35.662926 14.910000 5.000000
434 0 1 0.000000 36.892682 15.620000 5.000000
435 0 1 0.000000 36.892682 17.040000 5.000000
436 0 1 0.000000 38.122438 17.750000 5.000000
437 0 1 0.000000 38.122438 19.170000 5.000000
438 0 1 0.000000 39.352194 19.880000 5.000000
439 0 1 0.000000 39.352194 21.300000 5.000000
440 0 1 0.000000 40.581950 22.010000 5.000000
441 0 1 0.000000 40.581950 23.430000 5.000000
442 0 1 0.000000 41.811706 24.140000 5.000000
443 0 1 0.000000 41.811706 25.560000 5.000000
444 0 1 0.000000 43.041463 26.270000 5.000000
445 0 1 0.000000 43.041463 27.690000 5.000000
446 0 1 0.000000 44.271219 28.400000 5.000000
447 0 1 0.000000 44.271219 29.820000 5.000000
448 0 1 0.000000 45.500975 30.530000 5.000000
449 0 1 0.000000 45.500975 31.950000 5.000000
450 0 1 0.000000 46.730731 32.660000 5.000000
451 0 1 0.000000 46.730731 34.080000 5.000000
452 0 1 0.000000 47.960487 34.790000 5.000000
453 0 1 0.000000 47.960487 36.210000 5.000000
454 0 1 0.000000 49.190243 36.920000 5.000000
455 0 1 0.000000 49.190243 38.340000 5.000000
456 0 1 0.000000 50.419999 39.050000 5.000000
457 0 1 0.000000 29.514146 0.000000 5.000000
458 0 1 0.000000 30.743902 0.710000 5.000000
459 0 1 0.000000 30.743902 2.130000 5.000000
460 0 1 0.000000 31.973658 2.840000 5.000000
461 0 1 0.000000 31.973658 4.260000 5.000000
462 0 1 0.000000 33.203414 4.970000 5.000000
463 0 1 0.000000 33.203414 6.390000 5.000000
464 0 1 0.000000 34.433170 7.100000 5.000000
465 0 1 0.000000 34.433170 8.520000 5.000000
466 0 1 0.000000 35.662926 9.230000 5.000000
467 0 1 0.000000 35.662926 10.650000 5.000000
468 0 1 0.000000 36.892682 11.360000 5.000000
469 0 1 0.000000 36.892682 12.780000 5.000000
470 0 1 0.000000 38.122438 13.490000 5.000000
471 0 1 0.000000 38.122438 14.910000 5.000000
472 0 1 0.000000 39.352194 15.620000 5.000000
473 0 1 0.000000 39.352194 17.040000 5.000000
474 0 1 0.000000 40.581950 17.750000 5.000000
475 0 1 0.000000 40.581950 19.170000 5.000000
476 0 1 0.000000 41.811706 19.880000 5.000000
477 0 1 0.000000 41.811706 21.300000 5.000000
478 0 1 0.000000 43.041463 22.010000 5.000000
479 0 1 0.000000 43.041463 23.430000 5.000000
480 0 1 0.000000 44.271219 24.140000 5.000000
481 0 1 0.000000 44.271219 25.560000 5.000000
482 0 1 0.000000 45.500975 26.270000 5.000000
483 0 1 0.000000 45.500975 27.690000 5.000000
484 0 1 0.000000 46.730731 28.400000 5.000000
485 0 1 0.000000 46.730731 29.820000 5.000000
486 0 1 0.000000 47.960487 30.530000 5.000000
487 0 1 0.000000 47.960487 31.950000 5.000000
488 0 1 0.000000 49.190243 32.660000 5.000000
489 0 1 0.000000 49.190243 34.080000 5.000000
490 0 1 0.000000 50.419999 34.790000 5.000000
491 0 1 0.000000 50.419999 36.210000 5.000000
492 0 1 0.000000 51.649755 36.920000 5.000000
493 0 1 0.000000 51.649755 38.340000 5.000000
494 0 1 0.000000 52.879511 39.050000 5.000000
495 0 1 0.000000 31.973658 0.000000 5.000000
496 0 1 0.000000 33.203414 0.710000 5.000000
497 0 1 0.000000 33.203414 2.130000 5.000000
498 0 1 0.000000 34.433170 2.840000 5.000000
499 0 1 0.000000 34.433170 4.260000 5.000000
500 0 1 0.000000 35.662926 4.970000 5.000000
501 0 1 0.000000 35.662926 6.390000 5.000000
502 0 1 0.000000 36.892682 7.100000 5.000000
503 0 1 0.000000 36.892682 8.520000 5.000000
504 0 1 0.000000 38.122438 9.230000 5.000000
505 0 1 0.000000 38.122438 10.650000 5.000000
506 0 1 0.000000 39.352194 11.360000 5.000000
507 0 1 0.000000 39.352194 12.780000 5.000000
508 0 1 0.000000 40.581950 13.490000 5.000000
509 0 1 0.000000 40.581950 14.910000 5.000000
510 0 1 0.000000 41.811706 15.620000 5.000000
511 0 1 0.000000 41.811706 17.040000 5.000000
512 0 1 0.000000 43.041463 17.750000 5.000000
513 0 1 0.000000 43.041463 19.170000 5.000000
514 0 1 0.000000 44.271219 19.880000 5.000000
515 0 1 0.000000 44.271219 21.300000 5.000000
516 0 1 0.000000 45.500975 22.010000 5.000000
517 0 1 0.000000 45.500975 23.430000 5.000000
518 0 1 0.000000 46.730731 24.140000 5.000000
519 0 1 0.000000 46.730731 25.560000 5.000000
520 0 1 0.000000 47.960487 26.270000 5.000000
521 0 1 0.000000 47.960487 27.690000 5.000000
522 0 1 0.000000 49.190243 28.400000 5.000000
523 0 1 0.000000 49.190243 29.820000 5.000000
524 0 1 0.000000 50.419999 30.530000 5.000000
525 0 1 0.000000 50.419999 31.950000 5.000000
526 0 1 0.000000 51.649755 32.660000 5.000000
527 0 1 0.000000 51.649755 34.080000 5.000000
528 0 1 0.000000 52.879511 34.790000 5.000000
529 0 1 0.000000 52.879511 36.210000 5.000000
530 0 1 0.000000 54.109267 36.920000 5.000000
531 0 1 0.000000 54.109267 38.340000 5.000000
532 0 1 0.000000 55.339023 39.050000 5.000000
533 0 1 0.000000 34.433170 0.000000 5.000000
534 0 1 0.000000 35.662926 0.710000 5.000000
535 0 1 0.000000 35.662926 2.130000 5.000000
536 0 1 0.000000 36.892682 2.840000 5.000000
537 0 1 0.000000 36.892682 4.260000 5.000000
538 0 1 0.000000 38.122438 4.970000 5.000000
539 0 1 0.000000 38.122438 6.390000 5.000000
540 0 1 0.000000 39.352194 7.100000 5.000000
541 0 1 0.000000 39.352194 8.520000 5.000000
542 0 1 0.000000 40.581950 9.230000 5.000000
543 0 1 0.000000 40.581950 10.650000 5.000000
544 0 1 0.000000 41.811706 11.360000 5.000000
545 0 1 0.000000 41.811706 12.780000 5.000000
546 0 1 0.000000 43.041463 13.490000 5.000000
547 0 1 0.000000 43.041463 14.910000 5.000000
548 0 1 0.000000 44.271219 15.620000 5.000000
549 0 1 0.000000 44.271219 17.040000 5.000000
550 0 1 0.000000 45.500975 17.750000 5.000000
551 0 1 0.000000 45.500975 19.170000 5.000000
552 0 1 0.000000 46.730731 19.880000 5.000000
553 0 1 0.000000 46.730731 21.300000 5.000000
554 0 1 0.000000 47.960487 22.010000 5.000000
555 0 1 0.000000 47.960487 23.430000 5.000000
556 0 1 0.000000 49.190243 24.140000 5.000000
557 0 1 0.000000 49.190243 25.560000 5.000000
558 0 1 0.000000 50.419999 26.270000 5.000000
559 0 1 0.000000 50.419999 27.690000 5.000000
560 0 1 0.000000 51.649755 28.400000 5.000000
561 0 1 0.000000 51.649755 29.820000 5.000000
562 0 1 0.000000 52.879511 30.530000 5.000000
563 0 1 0.000000 52.879511 31.950000 5.000000
564 0 1 0.000000 54.109267 32.660000 5.000000
565 0 1 0.000000 54.109267 34.080000 5.000000
566 0 1 0.000000 55.339023 34.790000 5.000000
567 0 1 0.000000 55.339023 36.210000 5.000000
568 0 1 0.000000 56.568779 36.920000 5.000000
569 0 1 0.000000 56.568779 38.340000 5.000000
570 0 1 0.000000 57.798535 39.050000 5.000000
571 0 1 0.000000 36.892682 0.000000 5.000000
572 0 1 0.000000 38.122438 0.710000 5.000000
573 0 1 0.000000 38.122438 2.130000 5.000000
574 0 1 0.000000 39.352194 2.840000 5.000000
575 0 1 0.000000 39.352194 4.260000 5.000000
576 0 1 0.000000 40.581950 4.970000 5.000000
577 0 1 0.000000 40.581950 6.390000 5.000000
578 0 1 0.000000 41.811706 7.100000 5.000000
579 0 1 0.000000 41.811706 8.520000 5.000000
580 0 1 0.000000 43.041463 9.230000 5.000000
581 0 1 0.000000 43.041463 10.650000 5.000000
582 0 1 0.000000 44.271219 11.360000 5.000000
583 0 1 0.000000 44.271219 12.780000 5.000000
584 0 1 0.000000 45.500975 13.490000 5.000000
585 0 1 0.000000 45.500975 14.910000 5.000000
586 0 1 0.000000 46.730731 15.620000 5.000000
587 0 1 0.000000 46.730731 17.040000 5.000000
588 0 1 0.000000 47.960487 17.750000 5.000000
589 0 1 0.000000 47.960487 19.170000 5.000000
590 0 1 0.000000 49.190243 19.880000 5.000000
591 0 1 0.000000 49.190243 21.300000 5.000000
592 0 1 0.000000 50.419999 22.010000 5.000000
593 0 1 0.000000 50.419999 23.430000 5.000000
594 0 1 0.000000 51.649755 24.140000 5.000000
595 0 1 0.000000 51.649755 25.560000 5.000000
596 0 1 0.000000 52.879511 26.270000 5.000000
597 0 1 0.000000 52.879511 27.690000 5.000000
598 0 1 0.000000 54.109267 28.400000 5.000000
599 0 1 0.000000 54.109267 29.820000 5.000000
600 0 1 0.000000 55.339023 30.530000 5.000000
601 0 1 0.000000 55.339023 31.950000 5.000000
602 0 1 0.000000 56.568779 32.660000 5.000000
603 0 1 0.000000 56.568779 34.080000 5.000000
604 0 1 0.000000 57.798535 34.790000 5.000000
605 0 1 0.000000 57.798535 36.210000 5.000000
606 0 1 0.000000 59.028292 36.920000 5.000000
607 0 1 0.000000 59.028292 38.340000 5.000000
608 0 1 0.000000 60.258048 39.050000 5.000000
609 0 1 0.000000 39.352194 0.000000 5.000000
610 0 1 0.000000 40.581950 0.710000 5.000000
611 0 1 0.000000 40.581950 2.130000 5.000000
612 0 1 0.000000 41.811706 2.840000 5.000000
613 0 1 0.000000 41.811706 4.260000 5.000000
614 0 1 0.000000 43.041463 4.970000 5.000000
615 0 1 0.000000 43.041463 6.390000 5.000000
616 0 1 0.000000 44.271219 7.100000 5.000000
617 0 1 0.000000 44.271219 8.520000 5.000000
618 0 1 0.000000 45.500975 9.230000 5.000000
619 0 1 0.000000 45.500975 10.650000 5.000000
620 0 1 0.000000 46.730731 11.360000 5.000000
621 0 1 0.000000 46.730731 12.780000 5.000000
622 0 1 0.000000 47.960487 13.490000 5.000000
623 0 1 0.000000 47.960487 14.910000 5.000000
624 0 1 0.000000 49.190243 15.620000 5.000000
625 0 1 0.000000 49.190243 17.040000 5.000000
626 0 1 0.000000 50.419999 17.750000 5.000000
627 0 1 0.000000 50.419999 19.170000 5.000000
628 0 1 0.000000 51.649755 19.880000 5.000000
629 0 1 0.000000 51.649755 21.300000 5.000000
630 0 1 0.000000 52.879511 22.010000 5.000000
631 0 1 0.000000 52.879511 23.430000 5.000000
632 0 1 0.000000 54.109267 24.140000 5.000000
633 0 1 0.000000 54.109267 25.560000 5.000000
634 0 1 0.000000 55.339023 26.270000 5.000000
635 0 1 0.000000 55.339023 27.690000 5.000000
636 0 1 0.000000 56.568779 28.400000 5.000000
637 0 1 0.000000 56.568779 29.820000 5.000000
638 0 1 0.000000 57.798535 30.530000 5.000000
639 0 1 0.000000 57.798535 31.950000 5.000000
640 0 1 0.000000 59.028292 32.660000 5.000000
641 0 1 0.000000 59.028292 34.080000 5.000000
642 0 1 0.000000 60.258048 34.790000 5.000000
643 0 1 0.000000 60.258048 36.210000 5.000000
644 0 1 0.000000 61.487804 36.920000 5.000000
645 0 1 0.000000 61.487804 38.340000 5.000000
646 0 1 0.000000 62.717560 39.050000 5.000000
647 0 1 0.000000 41.811706 0.000000 5.000000
648 0 1 0.000000 43.041463 0.710000 5.000000
649 0 1 0.000000 43.041463 2.130000 5.000000
650 0 1 0.000000 44.271219 2.840000 5.000000
651 0 1 0.000000 44.271219 4.260000 5.000000
652 0 1 0.000000 45.500975 4.970000 5.000000
653 0 1 0.000000 45.500975 6.390000 5.000000
654 0 1 0.000000 46.730731 7.100000 5.000000
655 0 1 0.000000 46.730731 8.520000 5.000000
656 0 1 0.000000 47.960487 9.230000 5.000000
657 0 1 0.000000 47.960487 10.650000 5.000000
658 0 1 0.000000 49.190243 11.360000 5.000000
659 0 1 0.000000 49.190243 12.780000 5.000000
660 0 1 0.000000 50.419999 13.490000 5.000000
661 0 1 0.000000 50.419999 14.910000 5.000000
662 0 1 0.000000 51.649755 15.620000 5.000000
663 0 1 0.000000 51.649755 17.040000 5.000000
664 0 1 0.000000 52.879511 17.750000 5.000000
665 0 1 0.000000 52.879511 19.170000 5.000000
666 0 1 0.000000 54.109267 19.880000 5.000000
667 0 1 0.000000 54.109267 21.300000 5.000000
668 0 1 0.000000 55.339023 22.010000 5.000000
669 0 1 0.000000 55.339023 23.430000 5.000000
670 0 1 0.000000 56.568779 24.140000 5.000000
671 0 1 0.000000 56.568779 25.560000 5.000000
672 0 1 0.000000 57.798535 26.270000 5.000000
673 0 1 0.000000 57.798535 27.690000 5.000000
674 0 1 0.000000 59.028292 28.400000 5.000000
675 0 1 0.000000 59.028292 29.820000 5.000000
676 0 1 0.000000 60.258048 30.530000 5.000000
677 0 1 0.000000 60.258048 31.950000 5.000000
678 0 1 0.000000 61.487804 32.660000 5.000000
679 0 1 0.000000 61.487804 34.080000 5.000000
680 0 1 0.000000 62.717560 34.790000 5.000000
681 0 1 0.000000 62.717560 36.210000 5.000000
682 0 1 0.000000 63.947316 36.920000 5.000000
683 0 1 0.000000 63.947316 38.340000 5.000000
684 0 1 0.000000 65.177072 39.050000 5.000000
685 0 1 0.000000 44.271219 0.000000 5.000000
686 0 1 0.000000 45.500975 0.710000 5.000000
687 0 1 0.000000 45.500975 2.130000 5.000000
688 0 1 0.000000 46.730731 2.840000 5.000000
689 0 1 0.000000 46.730731 4.260000 5.000000
690 0 1 0.000000 47.960487 4.970000 5.000000
691 0 1 0.000000 47.960487 6.390000 5.000000
692 0 1 0.000000 49.190243 7.100000 5.000000
693 0 1 0.000000 49.190243 8.520000 5.000000
694 0 1 0.000000 50.419999 9.230000 5.000000
695 0 1 0.000000 50.419999 10.650000 5.000000
696 0 1 0.000000 51.649755 11.360000 5.000000
697 0 1 0.000000 51.649755 12.780000 5.000000
698 0 1 0.000000 52.879511 13.490000 5.000000
699 0 1 0.000000 52.879511 14.910000 5.000000
700 0 1 0.000000 54.109267 15.620000 5.000000
701 0 1 0.000000 54.109267 17.040000 5.000000
702 0 1 0.000000 55.339023 17.750000 5.000000
703 0 1 0.000000 55.339023 19.170000 5.000000
704 0 1 0.000000 56.568779 19.880000 5.000000
705 0 1 0.000000 56.568779 21.300000 5.000000
706 0 1 0.000000 57.798535 22.010000 5.000000
707 0 1 0.000000 57.798535 23.430000 5.000000
708 0 1 0.000000 59.028292 24.140000 5.000000
709 0 1 0.000000 59.028292 25.560000 5.000000
710 0 1 0.000000 60.258048 26.270000 5.000000
711 0 1 0.000000 60.258048 27.690000 5.000000
712 0 1 0.000000 61.487804 28.400000 5.000000
713 0 1 0.000000 61.487804 29.820000 5.000000
714 0 1 0.000000 62.717560 30.530000 5.000000
715 0 1 0.000000 62.717560 31.950000 5.000000
716 0 1 0.000000 63.947316 32.660000 5.000000
717 0 1 0.000000 63.947316 34.080000 5.000000
718 0 1 0.000000 65.177072 34.790000 5.000000
719 0 1 0.000000 65.177072 36.210000 5.000000
720 0 1 0.000000 66.406828 36.920000 5.000000
721 0 1 0.000000 66.406828 38.340000 5.000000
722 0 1 0.000000 67.636584 39.050000 5.000000
723 0 1 0.000000 46.730731 0.000000 5.000000
724 0 1 0.000000 47.960487 0.710000 5.000000
725 0 1 0.000000 47.960487 2.130000 5.000000
726 0 1 0.000000 49.190243 2.840000 5.000000
727 0 1 0.000000 49.190243 4.260000 5.000000
728 0 1 0.000000 50.419999 4.970000 5.000000
729 0 1 0.000000 50.419999 6.390000 5.000000
730 0 1 0.000000 51.649755 7.100000 5.000000
731 0 1 0.000000 51.649755 8.520000 5.000000
732 0 1 0.000000 52.879511 9.230000 5.000000
733 0 1 0.000000 52.879511 10.650000 5.000000
734 0 1 0.000000 54.109267 11.360000 5.000000
735 0 1 0.000000 54.109267 12.780000 5.000000
736 0 1 0.000000 55.339023 13.490000 5.000000
737 0 1 0.000000 55.339023 14.910000 5.000000
738 0 1 0.000000 56.568779 15.620000 5.000000
739 0 1 0.000000 56.568779 17.040000 5.000000
740 0 1 0.000000 57.798535 17.750000 5.000000
741 0 1 0.000000 57.798535 19.170000 5.000000
742 0 1 0.000000 59.028292 19.880000 5.000000
743 0 1 0.000000 59.028292 21.300000 5.000000
744 0 1 0.000000 60.258048 22.010000 5.000000
745 0 1 0.000000 60.258048 23.430000 5.000000
746 0 1 0.000000 61.487804 24.140000 5.000000
747 0 1 0.000000 61.487804 25.560000 5.000000
748 0 1 0.000000 62.717560 26.270000 5.000000
749 0 1 0.000000 62.717560 27.690000 5.000000
750 0 1 0.000000 63.947316 28.400000 5.000000
751 0 1 0.000000 63.947316 29.820000 5.000000
752 0 1 0.000000 65.177072 30.530000 5.000000
753 0 1 0.000000 65.177072 31.950000 5.000000
754 0 1 0.000000 66.406828 32.660000 5.000000
755 0 1 0.000000 66.406828 34.080000 5.000000
756 0 1 0.000000 67.636584 34.790000 5.000000
757 0 1 0.000000 67.636584 36.210000 5.000000
758 0 1 0.000000 68.866340 36.920000 5.000000
759 0 1 0.000000 68.866340 38.340000 5.000000
760 0 1 0.000000 70.096096 39.050000 5.000000
761 0 1 0.000000 49.190243 0.000000 5.000000
762 0 1 0.000000 50.419999 0.710000 5.000000
763 0 1 0.000000 50.419999 2.130000 5.000000
764 0 1 0.000000 51.649755 2.840000 5.000000
765 0 1 0.000000 51.649755 4.260000 5.000000
766 0 1 0.000000 52.879511 4.970000 5.000000
767 0 1 0.000000 52.879511 6.390000 5.000000
768 0 1 0.000000 54.109267 7.100000 5.000000
769 0 1 0.000000 54.109267 8.520000 5.000000
770 0 1 0.000000 55.339023 9.230000 5.000000
771 0 1 0.000000 55.339023 10.650000 5.000000
772 0 1 0.000000 56.568779 11.360000 5.000000
773 0 1 0.000000 56.568779 12.780000 5.000000
774 0 1 0.000000 57.798535 13.490000 5.000000
775 0 1 0.000000 57.798535 14.910000 5.000000
776 0 1 0.000000 59.028292 15.620000 5.000000
777 0 1 0.000000 59.028292 17.040000 5.000000
778 0 1 0.000000 60.258048 17.750000 5.000000
779 0 1 0.000000 60.258048 19.170000 5.000000
780 0 1 0.000000 61.487804 19.880000 5.000000
781 0 1 0.000000 61.487804 21.300000 5.000000
782 0 1 0.000000 62.717560 22.010000 5.000000
783 0 1 0.000000 62.717560 23.430000 5.000000
784 0 1 0.000000 63.947316 24.140000 5.000000
785 0 1 0.000000 63.947316 25.560000 5.000000
786 0 1 0.000000 65.177072 26.270000 5.000000
787 0 1 0.000000 65.177072 27.690000 5.000000
788 0 1 0.000000 66.406828 28.400000 5.000000
789 0 1 0.000000 66.406828 29.820000 5.000000
790 0 1 0.000000 67.636584 30.530000 5.000000
791 0 1 0.000000 67.636584 31.950000 5.000000
792 0 1 0.000000 68.866340 32.660000 5.000000
793 0 1 0.000000 68.866340 34.080000 5.000000
794 0 1 0.000000 70.096096 34.790000 5.000000
795 0 1 0.000000 70.096096 36.210000 5.000000
796 0 1 0.000000 71.325852 36.920000 5.000000
797 0 1 0.000000 71.325852 38.340000 5.000000
798 0 1 0.000000 72.555608 39.050000 5.000000
799 0 1 0.000000 51.649755 0.000000 5.000000
800 0 1 0.000000 52.879511 0.710000 5.000000
801 0 1 0.000000 52.879511 2.130000 5.000000
802 0 1 0.000000 54.109267 2.840000 5.000000
803 0 1 0.000000 54.109267 4.260000 5.000000
804 0 1 0.000000 55.339023 4.970000 5.000000
805 0 1 0.000000 55.339023 6.390000 5.000000
806 0 1 0.000000 56.568779 7.100000 5.000000
807 0 1 0.000000 56.568779 8.520000 5.000000
808 0 1 0.000000 57.798535 9.230000 5.000000
809 0 1 0.000000 57.798535 10.650000 5.000000
810 0 1 0.000000 59.028292 11.360000 5.000000
811 0 1 0.000000 59.028292 12.780000 5.000000
812 0 1 0.000000 60.258048 13.490000 5.000000
813 0 1 0.000000 60.258048 14.910000 5.000000
814 0 1 0.000000 61.487804 15.620000 5.000000
815 0 1 0.000000 61.487804 17.040000 5.000000
816 0 1 0.000000 62.717560 17.750000 5.000000
817 0 1 0.000000 62.717560 19.170000 5.000000
818 0 1 0.000000 63.947316 19.880000 5.000000
819 0 1 0.000000 63.947316 21.300000 5.000000
820 0 1 0.000000 65.177072 22.010000 5.000000
821 0 1 0.000000 65.177072 23.430000 5.000000
822 0 1 0.000000 66.406828 24.140000 5.000000
823 0 1 0.000000 66.406828 25.560000 5.000000
824 0 1 0.000000 67.636584 26.270000 5.000000
825 0 1 0.000000 67.636584 27.690000 5.000000
826 0 1 0.000000 68.866340 28.400000 5.000000
827 0 1 0.000000 68.866340 29.820000 5.000000
828 0 1 0.000000 70.096096 30.530000 5.000000
829 0 1 0.000000 70.096096 31.950000 5.000000
830 0 1 0.000000 71.325852 32.660000 5.000000
831 0 1 0.000000 71.325852 34.080000 5.000000
832 0 1 0.000000 72.555608 34.790000 5.000000
833 0 1 0.000000 72.555608 36.210000 5.000000
834 0 1 0.000000 73.785364 36.920000 5.000000
835 0 1 0.000000 73.785364 38.340000 5.000000
836 0 1 0.000000 75.015120 39.050000 5.000000
837 0 1 0.000000 54.109267 0.000000 5.000000
838 0 1 0.000000 55.339023 0.710000 5.000000
839 0 1 0.000000 55.339023 2.130000 5.000000
840 0 1 0.000000 56.568779 2.840000 5.000000
841 0 1 0.000000 56.568779 4.260000 5.000000
842 0 1 0.000000 57.798535 4.970000 5.000000
843 0 1 0.000000 57.798535 6.390000 5.000000
844 0 1 0.000000 59.028292 7.100000 5.000000
845 0 1 0.000000 59.028292 8.520000 5.000000
846 0 1 0.000000 60.258048 9.230000 5.000000
847 0 1 0.000000 60.258048 10.650000 5.000000
848 0 1 0.000000 61.487804 11.360000 5.000000
849 0 1 0.000000 61.487804 12.780000 5.000000
850 0 1 0.000000 62.717560 13.490000 5.000000
851 0 1 0.000000 62.717560 14.910000 5.000000
852 0 1 0.000000 63.947316 15.620000 5.000000
853 0 1 0.000000 63.947316 17.040000 5.000000
854 0 1 0.000000 65.177072 17.750000 5.000000
855 0 1 0.000000 65.177072 19.170000 5.000000
856 0 1 0.000000 66.406828 19.880000 5.000000
857 0 1 0.000000 66.406828 21.300000 5.000000
858 0 1 0.000000 67.636584 22.010000 5.000000
859 0 1 0.000000 67.636584 23.430000 5.000000
860 0 1 0.000000 68.866340 24.140000 5.000000
861 0 1 0.000000 68.866340 25.560000 5.000000
862 0 1 0.000000 70.096096 26.270000 5.000000
863 0 1 0.000000 70.096096 27.690000 5.000000
864 0 1 0.000000 71.325852 28.400000 5.000000
865 0 1 0.000000 71.325852 29.820000 5.000000
866 0 1 0.000000 72.555608 30.530000 5.000000
867 0 1 0.000000 72.555608 31.950000 5.000000
868 0 1 0.000000 73.785364 32.660000 5.000000
869 0 1 0.000000 73.785364 34.080000 5.000000
870 0 1 0.000000 75.015120 34.790000 5.000000
871 0 1 0.000000 75.015120 36.210000 5.000000
872 0 1 0.000000 76.244877 36.920000 5.000000
873 0 1 0.000000 76.244877 38.340000 5.000000
874 0 1 0.000000 77.474633 39.050000 5.000000
875 0 1 0.000000 56.568779 0.000000 5.000000
876 0 1 0.000000 57.798535 0.710000 5.000000
877 0 1 0.000000 57.798535 2.130000 5.000000
878 0 1 0.000000 59.028292 2.840000 5.000000
879 0 1 0.000000 59.028292 4.260000 5.000000
880 0 1 0.000000 60.258048 4.970000 5.000000
881 0 1 0.000000 60.258048 6.390000 5.000000
882 0 1 0.000000 61.487804 7.100000 5.000000
883 0 1 0.000000 61.487804 8.520000 5.000000
884 0 1 0.000000 62.717560 9.230000 5.000000
885 0 1 0.000000 62.717560 10.650000 5.000000
886 0 1 0.000000 63.947316 11.360000 5.000000
887 0 1 0.000000 63.947316 12.780000 5.000000
888 0 1 0.000000 65.177072 13.490000 5.000000
889 0 1 0.000000 65.177072 14.910000 5.000000
890 0 1 0.000000 66.406828 15.620000 5.000000
891 0 1 0.000000 66.406828 17.040000 5.000000
892 0 1 0.000000 67.636584 17.750000 5.000000
893 0 1 0.000000 67.636584 19.170000 5.000000
894 0 1 0.000000 68.866340 19.880000 5.000000
895 0 1 0.000000 68.866340 21.300000 5.000000
896 0 1 0.000000 70.096096 22.010000 5.000000
897 0 1 0.000000 70.096096 23.430000 5.000000
898 0 1 0.000000 71.325852 24.140000 5.000000
899 0 1 0.000000 71.325852 25.560000 5.000000
900 0 1 0.000000 72.555608 26.270000 5.000000
901 0 1 0.000000 72.555608 27.690000 5.000000
902 0 1 0.000000 73.785364 28.400000 5.000000
903 0 1 0.000000 73.785364 29.820000 5.000000
904 0 1 0.000000 75.015120 30.530000 5.000000
905 0 1 0.000000 75.015120 31.950000 5.000000
906 0 1 0.000000 76.244877 32.660000 5.000000
907 0 1 0.000000 76.244877 34.080000 5.000000
908 0 1 0.000000 77.474633 34.790000 5.000000
909 0 1 0.000000 77.474633 36.210000 5.000000
910 0 1 0.000000 78.704389 36.920000 5.000000
911 0 1 0.000000 78.704389 38.340000 5.000000
912 0 1 0.000000 79.934145 39.050000 5.000000
913 0 1 0.000000 59.028292 0.000000 5.000000
914 0 1 0.000000 60.258048 0.710000 5.000000
915 0 1 0.000000 60.258048 2.130000 5.000000
916 0 1 0.000000 61.487804 2.840000 5.000000
917 0 1 0.000000 61.487804 4.260000 5.000000
918 0 1 0.000000 62.717560 4.970000 5.000000
919 0 1 0.000000 62.717560 6.390000 5.000000
920 0 1 0.000000 63.947316 7.100000 5.000000
921 0 1 0.000000 63.947316 8.520000 5.000000
922 0 1 0.000000 65.177072 9.230000 5.000000
923 0 1 0.000000 65.177072 10.650000 5.000000
924 0 1 0.000000 66.406828 11.360000 5.000000
925 0 1 0.000000 66.406828 12.780000 5.000000
926 0 1 0.000000 67.636584 13.490000 5.000000
927 0 1 0.000000 67.636584 14.910000 5.000000
928 0 1 0.000000 68.866340 15.620000 5.000000
929 0 1 0.000000 68.866340 17.040000 5.000000
930 0 1 0.000000 70.096096 17.750000 5.000000
931 0 1 0.000000 70.096096 19.170000 5.000000
932 0 1 0.000000 71.325852 19.880000 5.000000
933 0 1 0.000000 71.325852 21.300000 5.000000
934 0 1 0.000000 72.555608 22.010000 5.000000
935 0 1 0.000000 72.555608 23.430000 5.000000
936 0 1 0.000000 73.785364 24.140000 5.000000
937 0 1 0.000000 73.785364 25.560000 5.000000
938 0 1 0.000000 75.015120 26.270000 5.000000
939 0 1 0.000000 75.015120 27.690000 5.000000
940 0 1 0.000000 76.244877 28.400000 5.000000
941 0 1 0.000000 76.244877 29.820000 5.000000
942 0 1 0.000000 77.474633 30.530000 5.000000
943 0 1 0.000000 77.474633 31.950000 5.000000
944 0 1 0.000000 78.704389 32.660000 5.000000
945 0 1 0.000000 78.704389 34.080000 5.000000
946 0 1 0.000000 79.934145 34.790000 5.000000
947 0 1 0.000000 79.934145 36.210000 5.000000
948 0 1 0.000000 81.163901 36.920000 5.000000
949 0 1 0.000000 81.163901 38.340000 5.000000
950 0 1 0.000000 82.393657 39.050000 5.000000
951 0 1 0.000000 61.487804 0.000000 5.000000
952 0 1 0.000000 62.717560 0.710000 5.000000
953 0 1 0.000000 62.717560 2.130000 5.000000
954 0 1 0.000000 63.947316 2.840000 5.000000
955 0 1 0.000000 63.947316 4.260000 5.000000
956 0 1 0.000000 65.177072 4.970000 5.000000
957 0 1 0.000000 65.177072 6.390000 5.000000
958 0 1 0.000000 66.406828 7.100000 5.000000
959 0 1 0.000000 66.406828 8.520000 5.000000
960 0 1 0.000000 67.636584 9.230000 5.000000
961 0 1 0.000000 67.636584 10.650000 5.000000
962 0 1 0.000000 68.866340 11.360000 5.000000
963 0 1 0.000000 68.866340 12.780000 5.000000
964 0 1 0.000000 70.096096 13.490000 5.000000
965 0 1 0.000000 70.096096 14.910000 5.000000
966 0 1 0.000000 71.325852 15.620000 5.000000
967 0 1 0.000000 71.325852 17.040000 5.000000
968 0 1 0.000000 72.555608 17.750000 5.000000
969 0 1 0.000000 72.555608 19.170000 5.000000
970 0 1 0.000000 73.785364 19.880000 5.000000
971 0 1 0.000000 73.785364 21.300000 5.000000
972 0 1 0.000000 75.015120 22.010000 5.000000
973 0 1 0.000000 75.015120 23.430000 5.000000
974 0 1 0.000000 76.244877 24.140000 5.000000
975 0 1 0.000000 76.244877 25.560000 5.000000
976 0 1 0.000000 77.474633 26.270000 5.000000
977 0 1 0.000000 77.474633 27.690000 5.000000
978 0 1 0.000000 78.704389 28.400000 5.000000
979 0 1 0.000000 78.704389 29.820000 5.000000
980 0 1 0.000000 79.934145 30.530000 5.000000
981 0 1 0.000000 79.934145 31.950000 5.000000
982 0 1 0.000000 81.163901 32.660000 5.000000
983 0 1 0.000000 81.163901 34.080000 5.000000
984 0 1 0.000000 82.393657 34.790000 5.000000
985 0 1 0.000000 82.393657 36.210000 5.000000
986 0 1 0.000000 83.623413 36.920000 5.000000
987 0 1 0.000000 83.623413 38.340000 5.000000
988 0 1 0.000000 84.853169 39.050000 5.000000
989 0 1 0.000000 63.947316 0.000000 5.000000
990 0 1 0.000000 65.177072 0.710000 5.000000
991 0 1 0.000000 65.177072 2.130000 5.000000
992 0 1 0.000000 66.406828 2.840000 5.000000
993 0 1 0.000000 66.406828 4.260000 5.000000
994 0 1 0.000000 67.636584 4.970000 5.000000
995 0 1 0.000000 67.636584 6.390000 5.000000
996 0 1 0.000000 68.866340 7.100000 5.000000
997 0 1 0.000000 68.866340 8.520000 5.000000
998 0 1 0.000000 70.096096 9.230000 5.000000
999 0 1 0.000000 70.096096 10.650000 5.000000
1000 0 1 0.000000 71.325852 11.360000 5.000000
1001 0 1 0.000000 71.325852 12.780000 5.000000
1002 0 1 0.000000 72.555608 13.490000 5.000000
1003 0 1 0.000000 72.555608 14.910000 5.000000
1004 0 1 0.000000 73.785364 15.620000 5.000000
1005 0 1 0.000000 73.785364 17.040000 5.000000
1006 0 1 0.000000 75.015120 17.750000 5.000000
1007 0 1 0.000000 75.015120 19.170000 5.000000
1008 0 1 0.000000 76.244877 19.880000 5.000000
1009 0 1 0.000000 76.244877 21.300000 5.000000
1010 0 1 0.000000 77.474633 22.010000 5.000000
1011 0 1 0.000000 77.474633 23.430000 5.000000
1012 0 1 0.000000 78.704389 24.140000 5.000000
1013 0 1 0.000000 78.704389 25.560000 5.000000
1014 0 1 0.000000 79.934145 26.270000 5.000000
1015 0 1 0.000000 79.934145 27.690000 5.000000
1016 0 1 0.000000 81.163901 28.400000 5.000000
1017 0 1 0.000000 81.163901 29.820000 5.000000
1018 0 1 0.000000 82.393657 30.530000 5.000000
1019 0 1 0.000000 82.393657 31.950000 5.000000
1020 0 1 0.000000 83.623413 32.660000 5.000000
1021 0 1 0.000000 83.623413 34.080000 5.000000
1022 0 1 0.000000 84.853169 34.790000 5.000000
1023 0 1 0.000000 84.853169 36.210000 5.000000
1024 0 1 0.000000 86.082925 36.920000 5.000000
1025 0 1 0.000000 86.082925 38.340000 5.000000
1026 0 1 0.000000 87.312681 39.050000 5.000000
1027 0 1 0.000000 66.406828 0.000000 5.000000
1028 0 1 0.000000 67.636584 0.710000 5.000000
1029 0 1 0.000000 67.636584 2.130000 5.000000
1030 0 1 0.000000 68.866340 2.840000 5.000000
1031 0 1 0.000000 68.866340 4.260000 5.000000
1032 0 1 0.000000 70.096096 4.970000 5.000000
1033 0 1 0.000000 70.096096 6.390000 5.000000
1034 0 1 0.000000 71.325852 7.100000 5.000000
1035 0 1 0.000000 71.325852 8.520000 5.000000
1036 0 1 0.000000 72.555608 9.230000 5.000000
1037 0 1 0.000000 72.555608 10.650000 5.000000
1038 0 1 0.000000 73.785364 11.360000 5.000000
1039 0 1 0.000000 73.785364 12.780000 5.000000
1040 0 1 0.000000 75.015120 13.490000 5.000000
1041 0 1 0.000000 75.015120 14.910000 5.000000
1042 0 1 0.000000 76.244877 15.620000 5.000000
1043 0 1 0.000000 76.244877 17.040000 5.000000
1044 0 1 0.000000 77.474633 17.750000 5.000000
1045 0 1 0.000000 77.474633 19.170000 5.000000
1046 0 1 0.000000 78.704389 19.880000 5.000000
1047 0 1 0.000000 78.704389 21.300000 5.000000
1048 0 1 0.000000 79.934145 22.010000 5.000000
1049 0 1 0.000000 79.934145 23.430000 5.000000
1050 0 1 0.000000 81.163901 24.140000 5.000000
1051 0 1 0.000000 81.163901 25.560000 5.000000
1052 0 1 0.000000 82.393657 26.270000 5.000000
1053 0 1 0.000000 82.393657 27.690000 5.000000
1054 0 1 0.000000 83.623413 28.400000 5.000000
1055 0 1 0.000000 83.623413 29.820000 5.000000
1056 0 1 0.000000 84.853169 30.530000 5.000000
1057 0 1 0.000000 84.853169 31.950000 5.000000
1058 0 1 0.000000 86.082925 32.660000 5.000000
1059 0 1 0.000000 86.082925 34.080000 5.000000
1060 0 1 0.000000 87.312681 34.790000 5.000000
1061 0 1 0.000000 87.312681 36.210000 5.000000
1062 0 1 0.000000 88.542437 36.920000 5.000000
1063 0 1 0.000000 88.542437 38.340000 5.000000
1064 0 1 0.000000 89.772193 39.050000 5.000000
1065 0 1 0.000000 68.866340 0.000000 5.000000
1066 0 1 0.000000 70.096096 0.710000 5.000000
1067 0 1 0.000000 70.096096 2.130000 5.000000
1068 0 1 0.000000 71.325852 2.840000 5.000000
1069 0 1 0.000000 71.325852 4.260000 5.000000
1070 0 1 0.000000 72.555608 4.970000 5.000000
1071 0 1 0.000000 72.555608 6.390000 5.000000
1072 0 1 0.000000 73.785364 7.100000 5.000000
1073 0 1 0.000000 73.785364 8.520000 5.000000
1074 0 1 0.000000 75.015120 9.230000 5.000000
1075 0 1 0.000000 75.015120 10.650000 5.000000
1076 0 1 0.000000 76.244877 11.360000 5.000000
1077 0 1 0.000000 76.244877 12.780000 5.000000
1078 0 1 0.000000 77.474633 13.490000 5.000000
1079 0 1 0.000000 77.474633 14.910000 5.000000
1080 0 1 0.000000 78.704389 15.620000 5.000000
1081 0 1 0.000000 78.704389 17.040000 5.000000
1082 0 1 0.000000 79.934145 17.750000 5.000000
1083 0 1 0.000000 79.934145 19.170000 5.000000
1084 0 1 0.000000 81.163901 19.880000 5.000000
1085 0 1 0.000000 81.163901 21.300000 5.000000
1086 0 1 0.000000 82.393657 22.010000 5.000000
1087 0 1 0.000000 82.393657 23.430000 5.000000
1088 0 1 0.000000 83.623413 24.140000 5.000000
1089 0 1 0.000000 83.623413 25.560000 5.000000
1090 0 1 0.000000 84.853169 26.270000 5.000000
1091 0 1 0.000000 84.853169 27.690000 5.000000
1092 0 1 0.000000 86.082925 28.400000 5.000000
1093 0 1 0.000000 86.082925 29.820000 5.000000
1094 0 1 0.000000 87.312681 30.530000 5.000000
1095 0 1 0.000000 87.312681 31.950000 5.000000
1096 0 1 0.000000 88.542437 32.660000 5.000000
1097 0 1 0.000000 88.542437 34.080000 5.000000
1098 0 1 0.000000 89.772193 34.790000 5.000000
1099 0 1 0.000000 89.772193 36.210000 5.000000
1100 0 1 0.000000 91.001949 36.920000 5.000000
1101 0 1 0.000000 91.001949 38.340000 5.000000
1102 0 1 0.000000 92.231706 39.050000 5.000000
1103 0 1 0.000000 71.325852 0.000000 5.000000
1104 0 1 0.000000 72.555608 0.710000 5.000000
1105 0 1 0.000000 72.555608 2.130000 5.000000
1106 0 1 0.000000 73.785364 2.840000 5.000000
1107 0 1 0.000000 73.785364 4.260000 5.000000
1108 0 1 0.000000 75.015120 4.970000 5.000000
1109 0 1 0.000000 75.015120 6.390000 5.000000
1110 0 1 0.000000 76.244877 7.100000 5.000000
1111 0 1 0.000000 76.244877 8.520000 5.000000
1112 0 1 0.000000 77.474633 9.230000 5.000000
1113 0 1 0.000000 77.474633 10.650000 5.000000
1114 0 1 0.000000 78.704389 11.360000 5.000000
1115 0 1 0.000000 78.704389 12.780000 5.000000
1116 0 1 0.000000 79.934145 13.490000 5.000000
1117 0 1 0.000000 79.934145 14.910000 5.000000
1118 0 1 0.000000 81.163901 15.620000 5.000000
1119 0 1 0.000000 81.163901 17.040000 5.000000
1120 0 1 0.000000 82.393657 17.750000 5.000000
1121 0 1 0.000000 82.393657 19.170000 5.000000
1122 0 1 0.000000 83.623413 19.880000 5.000000
1123 0 1 0.000000 83.623413 21.300000 5.000000
1124 0 1 0.000000 84.853169 22.010000 5.000000
1125 0 1 0.000000 84.853169 23.430000 5.000000
1126 0 1 0.000000 86.082925 24.140000 5.000000
1127 0 1 0.000000 86.082925 25.560000 5.000000
1128 0 1 0.000000 87.312681 26.270000 5.000000
1129 0 1 0.000000 87.312681 27.690000 5.000000
1130 0 1 0.000000 88.542437 28.400000 5.000000
1131 0 1 0.000000 88.542437 29.820000 5.000000
1132 0 1 0.000000 89.772193 30.530000 5.000000
1133 0 1 0.000000 89.772193 31.950000 5.000000
1134 0 1 0.000000 91.001949 32.660000 5.000000
1135 0 1 0.000000 91.001949 34.080000 5.000000
1136 0 1 0.000000 92.231706 34.790000 5.000000
1137 0 1 0.000000 92.231706 36.210000 5.000000
1138 0 1 0.000000 93.461462 36.920000 5.000000
1139 0 1 0.000000 93.461462 38.340000 5.000000
1140 0 1 0.000000 94.691218 39.050000 5.000000
1141 0 1 0.000000 73.785364 0.000000 5.000000
1142 0 1 0.000000 75.015120 0.710000 5.000000
1143 0 1 0.000000 75.015120 2.130000 5.000000
1144 0 1 0.000000 76.244877 2.840000 5.000000
1145 0 1 0.000000 76.244877 4.260000 5.000000
1146 0 1 0.000000 77.474633 4.970000 5.000000
1147 0 1 0.000000 77.474633 6.390000 5.000000
1148 0 1 0.000000 78.704389 7.100000 5.000000
1149 0 1 0.000000 78.704389 8.520000 5.000000
1150 0 1 0.000000 79.934145 9.230000 5.000000
1151 0 1 0.000000 79.934145 10.650000 5.000000
1152 0 1 0.000000 81.163901 11.360000 5.000000
1153 0 1 0.000000 81.163901 12.780000 5.000000
1154 0 1 0.000000 82.393657 13.490000 5.000000
1155 0 1 0.000000 82.393657 14.910000 5.000000
1156 0 1 0.000000 83.623413 15.620000 5.000000
1157 0 1 0.000000 83.623413 17.040000 5.000000
1158 0 1 0.000000 84.853169 17.750000 5.000000
1159 0 1 0.000000 84.853169 19.170000 5.000000
1160 0 1 0.000000 86.082925 19.880000 5.000000
1161 0 1 0.000000 86.082925 21.300000 5.000000
1162 0 1 0.000000 87.312681 22.010000 5.000000
1163 0 1 0.000000 87.312681 23.430000 5.000000
1164 0 1 0.000000 88.542437 24.140000 5.000000
1165 0 1 0.000000 88.542437 25.560000 5.000000
1166 0 1 0.000000 89.772193 26.270000 5.000000
1167 0 1 0.000000 89.772193 27.690000 5.000000
1168 0 1 0.000000 91.001949 28.400000 5.000000
1169 0 1 0.000000 91.001949 29.820000 5.000000
1170 0 1 0.000000 92.231706 30.530000 5.000000
1171 0 1 0.000000 92.231706 31.950000 5.000000
1172 0 1 0.000000 93.461462 32.660000 5.000000
1173 0 1 0.000000 93.461462 34.080000 5.000000
1174 0 1 0.000000 94.691218 34.790000 5.000000
1175 0 1 0.000000 94.691218 36.210000 5.000000
1176 0 1 0.000000 95.920974 36.920000 5.000000
1177 0 1 0.000000 95.920974 38.340000 5.000000
1178 0 1 0.000000 97.150730 39.050000 5.000000
1179 0 1 0.000000 76.244877 0.000000 5.000000
1180 0 1 0.000000 77.474633 0.710000 5.000000
1181 0 1 0.000000 77.474633 2.130000 5.000000
1182 0 1 0.000000 78.704389 2.840000 5.000000
1183 0 1 0.000000 78.704389 4.260000 5.000000
1184 0 1 0.000000 79.934145 4.970000 5.000000
1185 0 1 0.000000 79.934145 6.390000 5.000000
1186 0 1 0.000000 81.163901 7.100000 5.000000
1187 0 1 0.000000 81.163901 8.520000 5.000000
1188 0 1 0.000000 82.393657 9.230000 5.000000
1189 0 1 0.000000 82.393657 10.650000 5.000000
1190 0 1 0.000000 83.623413 11.360000 5.000000
1191 0 1 0.000000 83.623413 12.780000 5.000000
1192 0 1 0.000000 84.853169 13.490000 5.000000
1193 0 1 0.000000 84.853169 14.910000 5.000000
1194 0 1 0.000000 86.082925 15.620000 5.000000
1195 0 1 0.000000 86.082925 17.040000 5.000000
1196 0 1 0.000000 87.312681 17.750000 5.000000
1197 0 1 0.000000 87.312681 19.170000 5.000000
1198 0 1 0.000000 88.542437 19.880000 5.000000
1199 0 1 0.000000 88.542437 21.300000 5.000000
1200 0 1 0.000000 89.772193 22.010000 5.000000
1201 0 1 0.000000 89.772193 23.430000 5.000000
1202 0 1 0.000000 91.001949 24.140000 5.000000
1203 0 1 0.000000 91.001949 25.560000 5.000000
1204 0 1 0.000000 92.231706 26.270000 5.000000
1205 0 1 0.000000 92.231706 27.690000 5.000000
1206 0 1 0.000000 93.461462 28.400000 5.000000
1207 0 1 0.000000 93.461462 29.820000 5.000000
1208 0 1 0.000000 94.691218 30.530000 5.000000
1209 0 1 0.000000 94.691218 31.950000 5.000000
1210 0 1 0.000000 95.920974 32.660000 5.000000
1211 0 1 0.000000 95.920974 34.080000 5.000000
1212 0 1 0.000000 97.150730 34.790000 5.000000
1213 0 1 0.000000 97.150730 36.210000 5.000000
1214 0 1 0.000000 98.380486 36.920000 5.000000
1215 0 1 0.000000 98.380486 38.340000 5.000000
1216 0 1 0.000000 99.610242 39.050000 5.000000
1217 0 1 0.000000 78.704389 0.000000 5.000000
1218 0 1 0.000000 79.934145 0.710000 5.000000
1219 0 1 0.000000 79.934145 2.130000 5.000000
1220 0 1 0.000000 81.163901 2.840000 5.000000
1221 0 1 0.000000 81.163901 4.260000 5.000000
1222 0 1 0.000000 82.393657 4.970000 5.000000
1223 0 1 0.000000 82.393657 6.390000 5.000000
1224 0 1 0.000000 83.623413 7.100000 5.000000
1225 0 1 0.000000 83.623413 8.520000 5.000000
1226 0 1 0.000000 84.853169 9.230000 5.000000
1227 0 1 0.000000 84.853169 10.650000 5.000000
1228 0 1 0.000000 86.082925 11.360000 5.000000
1229 0 1 0.000000 86.082925 12.780000 5.000000
1230 0 1 0.000000 87.312681 13.490000 5.000000
1231 0 1 0.000000 87.312681 14.910000 5.000000
1232 0 1 0.000000 88.542437 15.620000 5.000000
1233 0 1 0.000000 88.542437 17.040000 5.000000
1234 0 1 0.000000 89.772193 17.750000 5.000000
1235 0 1 0.000000 89.772193 19.170000 5.000000
1236 0 1 0.000000 91.001949 19.880000 5.000000
1237 0 1 0.000000 91.001949 21.300000 5.000000
1238 0 1 0.000000 92.231706 22.010000 5.000000
1239 0 1 0.000000 92.231706 23.430000 5.000000
1240 0 1 0.000000 93.461462 24.140000 5.000000
1241 0 1 0.000000 93.461462 25.560000 5.000000
1242 0 1 0.000000 94.691218 26.270000 5.000000
1243 0 1 0.000000 94.691218 27.690000 5.000000
1244 0 1 0.000000 95.920974 28.400000 5.000000
1245 0 1 0.000000 95.920974 29.820000 5.000000
1246 0 1 0.000000 97.150730 30.530000 5.000000
1247 0 1 0.000000 97.150730 31.950000 5.000000
1248 0 1 0.000000 98.380486 32.660000 5.000000
1249 0 1 0.000000 98.380486 34.080000 5.000000
1250 0 1 0.000000 99.610242 34.790000 5.000000
1251 0 1 0.000000 99.610242 36.210000 5.000000
1252 0 1 0.000000 100.839998 36.920000 5.000000
1253 0 1 0.000000 100.839998 38.340000 5.000000
1254 0 1 0.000000 102.069754 39.050000 5.000000
1255 0 1 0.000000 81.163901 0.000000 5.000000
1256 0 1 0.000000 82.393657 0.710000 5.000000
1257 0 1 0.000000 82.393657 2.130000 5.000000
1258 0 1 0.000000 83.623413 2.840000 5.000000
1259 0 1 0.000000 83.623413 4.260000 5.000000
1260 0 1 0.000000 84.853169 4.970000 5.000000
1261 0 1 0.000000 84.853169 6.390000 5.000000
1262 0 1 0.000000 86.082925 7.100000 5.000000
1263 0 1 0.000000 86.082925 8.520000 5.000000
1264 0 1 0.000000 87.312681 9.230000 5.000000
1265 0 1 0.000000 87.312681 10.650000 5.000000
1266 0 1 0.000000 88.542437 11.360000 5.000000
1267 0 1 0.000000 88.542437 12.780000 5.000000
1268 0 1 0.000000 89.772193 13.490000 5.000000
1269 0 1 0.000000 89.772193 14.910000 5.000000
1270 0 1 0.000000 91.001949 15.620000 5.000000
1271 0 1 0.000000 91.001949 17.040000 5.000000
1272 0 1 0.000000 92.231706 17.750000 5.000000
1273 0 1 0.000000 92.231706 19.170000 5.000000
1274 0 1 0.000000 93.461462 19.880000 5.000000
1275 0 1 0.000000 93.461462 21.300000 5.000000
1276 0 1 0.000000 94.691218 22.010000 5.000000
1277 0 1 0.000000 94.691218 23.430000 5.000000
1278 0 1 0.000000 95.920974 24.140000 5.000000
1279 0 1 0.000000 95.920974 25.560000 5.000000
1280 0 1 0.000000 97.150730 26.270000 5.000000
1281 0 1 0.000000 97.150730 27.690000 5.000000
1282 0 1 0.000000 98.380486 28.400000 5.000000
1283 0 1 0.000000 98.380486 29.820000 5.000000
1284 0 1 0.000000 99.610242 30.530000 5.000000
1285 0 1 0.000000 99.610242 31.950000 5.000000
1286 0 1 0.000000 100.839998 32.660000 5.000000
1287 0 1 0.000000 100.839998 34.080000 5.000000
1288 0 1 0.000000 102.069754 34.790000 5.000000
1289 0 1 0.000000 102.069754 36.210000 5.000000
1290 0 1 0.000000 103.299510 36.920000 5.000000
1291 0 1 0.000000 103.299510 38.340000 5.000000
1292 0 1 0.000000 104.529266 39.050000 5.000000
1293 0 1 0.000000 83.623413 0.000000 5.000000
1294 0 1 0.000000 84.853169 0.710000 5.000000
1295 0 1 0.000000 84.853169 2.130000 5.000000
1296 0 1 0.000000 86.082925 2.840000 5.000000
1297 0 1 0.000000 86.082925 4.260000 5.000000
1298 0 1 0.000000 87.312681 4.970000 5.000000
1299 0 1 0.000000 87.312681 6.390000 5.000000
1300 0 1 0.000000 88.542437 7.100000 5.000000
1301 0 1 0.000000 88.542437 8.520000 5.000000
1302 0 1 0.000000 89.772193 9.230000 5.000000
1303 0 1 0.000000 89.772193 10.650000 5.000000
1304 0 1 0.000000 91.001949 11.360000 5.000000
1305 0 1 0.000000 91.001949 12.780000 5.000000
1306 0 1 0.000000 92.231706 13.490000 5.000000
1307 0 1 0.000000 92.231706 14.910000 5.000000
1308 0 1 0.000000 93.461462 15.620000 5.000000
1309 0 1 0.000000 93.461462 17.040000 5.000000
1310 0 1 0.000000 94.691218 17.750000 5.000000
1311 0 1 0.000000 94.691218 19.170000 5.000000
1312 0 1 0.000000 95.920974 19.880000 5.000000
1313 0 1 0.000000 95.920974 21.300000 5.000000
1314 0 1 0.000000 97.150730 22.010000 5.000000
1315 0 1 0.000000 97.150730 23.430000 5.000000
1316 0 1 0.000000 98.380486 24.140000 5.000000
1317 0 1 0.000000 98.380486 25.560000 5.000000
1318 0 1 0.000000 99.610242 26.270000 5.000000
1319 0 1 0.000000 99.610242 27.690000 5.000000
1320 0 1 0.000000 100.839998 28.400000 5.000000
1321 0 1 0.000000 100.839998 29.820000 5.000000
1322 0 1 0.000000 102.069754 30.530000 5.000000
1323 0 1 0.000000 102.069754 31.950000 5.000000
1324 0 1 0.000000 103.299510 32.660000 5.000000
1325 0 1 0.000000 103.299510 34.080000 5.000000
1326 0 1 0.000000 104.529266 34.790000 5.000000
1327 0 1 0.000000 104.529266 36.210000 5.000000
1328 0 1 0.000000 105.759022 36.920000 5.000000
1329 0 1 0.000000 105.759022 38.340000 5.000000
1330 0 1 0.000000 106.988778 39.050000 5.000000
1331 0 1 0.000000 86.082925 0.000000 5.000000
1332 0 1 0.000000 87.312681 0.710000 5.000000
1333 0 1 0.000000 87.312681 2.130000 5.000000
1334 0 1 0.000000 88.542437 2.840000 5.000000
1335 0 1 0.000000 88.542437 4.260000 5.000000
1336 0 1 0.000000 89.772193 4.970000 5.000000
1337 0 1 0.000000 89.772193 6.390000 5.000000
1338 0 1 0.000000 91.001949 7.100000 5.000000
1339 0 1 0.000000 91.001949 8.520000 5.000000
1340 0 1 0.000000 92.231706 9.230000 5.000000
1341 0 1 0.000000 92.231706 10.650000 5.000000
1342 0 1 0.000000 93.461462 11.360000 5.000000
1343 0 1 0.000000 93.461462 12.780000 5.000000
1344 0 1 0.000000 94.691218 13.490000 5.000000
1345 0 1 0.000000 94.691218 14.910000 5.000000
1346 0 1 0.000000 95.920974 15.620000 5.000000
1347 0 1 0.000000 95.920974 17.040000 5.000000
1348 0 1 0.000000 97.150730 17.750000 5.000000
1349 0 1 0.000000 97.150730 19.170000 5.000000
1350 0 1 0.000000 98.380486 19.880000 5.000000
1351 0 1 0.000000 98.380486 21.300000 5.000000
1352 0 1 0.000000 99.610242 22.010000 5.000000
1353 0 1 0.000000 99.610242 23.430000 5.000000
1354 0 1 0.000000 100.839998 24.140000 5.000000
1355 0 1 0.000000 100.839998 25.560000 5.000000
1356 0 1 0.000000 102.069754 26.270000 5.000000
1357 0 1 0.000000 102.069754 27.690000 5.000000
1358 0 1 0.000000 103.299510 28.400000 5.000000
1359 0 1 0.000000 103.299510 29.820000 5.000000
1360 0 1 0.000000 104.529266 30.530000 5.000000
1361 0 1 0.000000 104.529266 31.950000 5.000000
1362 0 1 0.000000 105.759022 32.660000 5.000000
1363 0 1 0.000000 105.759022 34.080000 5.000000
1364 0 1 0.000000 106.988778 34.790000 5.000000
1365 0 1 0.000000 106.988778 36.210000 5.000000
1366 0 1 0.000000 108.218534 36.920000 5.000000
1367 0 1 0.000000 108.218534 38.340000 5.000000
1368 0 1 0.000000 109.448291 39.050000 5.000000
1369 0 1 0.000000 88.542437 0.000000 5.000000
1370 0 1 0.000000 89.772193 0.710000 5.000000
1371 0 1 0.000000 89.772193 2.130000 5.000000
1372 0 1 0.000000 91.001949 2.840000 5.000000
1373 0 1 0.000000 91.001949 4.260000 5.000000
1374 0 1 0.000000 92.231706 4.970000 5.000000
1375 0 1 0.000000 92.231706 6.390000 5.000000
1376 0 1 0.000000 93.461462 7.100000 5.000000
1377 0 1 0.000000 93.461462 8.520000 5.000000
1378 0 1 0.000000 94.691218 9.230000 5.000000
1379 0 1 0.000000 94.691218 10.650000 5.000000
1380 0 1 0.000000 95.920974 11.360000 5.000000
1381 0 1 0.000000 95.920974 12.780000 5.000000
1382 0 1 0.000000 97.150730 13.490000 5.000000
1383 0 1 0.000000 97.150730 14.910000 5.000000
1384 0 1 0.000000 98.380486 15.620000 5.000000
1385 0 1 0.000000 98.380486 17.040000 5.000000
1386 0 1 0.000000 99.610242 17.750000 5.000000
1387 0 1 0.000000 99.610242 19.170000 5.000000
1388 0 1 0.000000 100.839998 19.880000 5.000000
1389 0 1 0.000000 100.839998 21.300000 5.000000
1390 0 1 0.000000 102.069754 22.010000 5.000000
1391 0 1 0.000000 102.069754 23.430000 5.000000
1392 0 1 0.000000 103.299510 24.140000 5.000000
1393 0 1 0.000000 103.299510 25.560000 5.000000
1394 0 1 0.000000 104.529266 26.270000 5.000000
1395 0 1 0.000000 104.529266 27.690000 5.000000
1396 0 1 0.000000 105.759022 28.400000 5.000000
1397 0 1 0.000000 105.759022 29.820000 5.000000
1398 0 1 0.000000 106.988778 30.530000 5.000000
1399 0 1 0.000000 106.988778 31.950000 5.000000
1400 0 1 0.000000 108.218534 32.660000 5.000000
1401 0 1 0.000000 108.218534 34.080000 5.000000
1402 0 1 0.000000 109.448291 34.790000 5.000000
1403 0 1 0.000000 109.448291 36.210000 5.000000
1404 0 1 0.000000 110.678047 36.920000 5.000000
1405 0 1 0.000000 110.678047 38.340000 5.000000
1406 0 1 0.000000 111.907803 39.050000 5.000000
1407 0 1 0.000000 91.001949 0.000000 5.000000
1408 0 1 0.000000 92.231706 0.710000 5.000000
1409 0 1 0.000000 92.231706 2.130000 5.000000
1410 0 1 0.000000 93.461462 2.840000 5.000000
1411 0 1 0.000000 93.461462 4.260000 5.000000
1412 0 1 0.000000 94.691218 4.970000 5.000000
1413 0 1 0.000000 94.691218 6.390000 5.000000
1414 0 1 0.000000 95.920974 7.100000 5.000000
1415 0 1 0.000000 95.920974 8.520000 5.000000
1416 0 1 0.000000 97.150730 9.230000 5.000000
1417 0 1 0.000000 97.150730 10.650000 5.000000
1418 0 1 0.000000 98.380486 11.360000 5.000000
1419 0 1 0.000000 98.380486 12.780000 5.000000
1420 0 1 0.000000 99.610242 13.490000 5.000000
1421 0 1 0.000000 99.610242 14.910000 5.000000
1422 0 1 0.000000 100.839998 15.620000 5.000000
1423 0 1 0.000000 100.839998 17.040000 5.000000
1424 0 1 0.000000 102.069754 17.750000 5.000000
1425 0 1 0.000000 102.069754 19.170000 5.000000
1426 0 1 0.000000 103.299510 19.880000 5.000000
1427 0 1 0.000000 103.299510 21.300000 5.000000
1428 0 1 0.000000 104.529266 22.010000 5.000000
1429 0 1 0.000000 104.529266 23.430000 5.000000
1430 0 1 0.000000 105.759022 24.140000 5.000000
1431 0 1 0.000000 105.759022 25.560000 5.000000
1432 0 1 0.000000 106.988778 26.270000 5.000000
1433 0 1 0.000000 106.988778 27.690000 5.000000
1434 0 1 0.000000 108.218534 28.400000 5.000000
1435 0 1 0.000000 108.218534 29.820000 5.000000
1436 0 1 0.000000 109.448291 30.530000 5.000000
1437 0 1 0.000000 109.448291 31.950000 5.000000
1438 0 1 0.000000 110.678047 32.660000 5.000000
1439 0 1 0.000000 110.678047 34.080000 5.000000
1440 0 1 0.000000 111.907803 34.790000 5.000000
1441 0 1 0.000000 111.907803 36.210000 5.000000
1442 0 1 0.000000 113.137559 36.920000 5.000000
1443 0 1 0.000000 113.137559 38.340000 5.000000
1444 0 1 0.000000 114.367315 39.050000 5.000000
1445 0 1 0.000000 93.461462 0.000000 5.000000
1446 0 1 0.000000 94.691218 0.710000 5.000000
1447 0 1 0.000000 94.691218 2.130000 5.000000
1448 0 1 0.000000 95.920974 2.840000 5.000000
1449 0 1 0.000000 95.920974 4.260000 5.000000
1450 0 1 0.000000 97.150730 4.970000 5.000000
1451 0 1 0.000000 97.150730 6.390000 5.000000
1452 0 1 0.000000 98.380486 7.100000 5.000000
1453 0 1 0.000000 98.380486 8.520000 5.000000
1454 0 1 0.000000 99.610242 9.230000 5.000000
1455 0 1 0.000000 99.610242 10.650000 5.000000
1456 0 1 0.000000 100.839998 11.360000 5.000000
1457 0 1 0.000000 100.839998 12.780000 5.000000
1458 0 1 0.000000 102.069754 13.490000 5.000000
1459 0 1 0.000000 102.069754 14.910000 5.000000
1460 0 1 0.000000 103.299510 15.620000 5.000000
1461 0 1 0.000000 103.299510 17.040000 5.000000
1462 0 1 0.000000 104.529266 17.750000 5.000000
1463 0 1 0.000000 104.529266 19.170000 5.000000
1464 0 1 0.000000 105.759022 19.880000 5.000000
1465 0 1 0.000000 105.759022 21.300000 5.000000
1466 0 1 0.000000 106.988778 22.010000 5.000000
1467 0 1 0.000000 106.988778 23.430000 5.000000
1468 0 1 0.000000 108.218534 24.140000 5.000000
1469 0 1 0.000000 108.218534 25.560000 5.000000
1470 0 1 0.000000 109.448291 26.270000 5.000000
1471 0 1 0.000000 109.448291 27.690000 5.000000
1472 0 1 0.000000 110.678047 28.400000 5.000000
1473 0 1 0.000000 110.678047 29.820000 5.000000
1474 0 1 0.000000 111.907803 30.530000 5.000000
1475 0 1 0.000000 111.907803 31.950000 5.000000
1476 0 1 0.000000 113.137559 32.660000 5.000000
1477 0 1 0.000000 113.137559 34.080000 5.000000
1478 0 1 0.000000 114.367315 34.790000 5.000000
1479 0 1 0.000000 114.367315 36.210000 5.000000
1480 0 1 0.000000 115.597071 36.920000 5.000000
1481 0 1 0.000000 115.597071 38.340000 5.000000
1482 0 1 0.000000 116.826827 39.050000 5.000000
1483 0 1 0.000000 95.920974 0.000000 5.000000
1484 0 1 0.000000 97.150730 0.710000 5.000000
1485 0 1 0.000000 97.150730 2.130000 5.000000
1486 0 1 0.000000 98.380486 2.840000 5.000000
1487 0 1 0.000000 98.380486 4.260000 5.000000
1488 0 1 0.000000 99.610242 4.970000 5.000000
1489 0 1 0.000000 99.610242 6.390000 5.000000
1490 0 1 0.000000 100.839998 7.100000 5.000000
1491 0 1 0.000000 100.839998 8.520000 5.000000
1492 0 1 0.000000 102.069754 9.230000 5.000000
1493 0 1 0.000000 102.069754 10.650000 5.000000
1494 0 1 0.000000 103.299510 11.360000 5.000000
1495 0 1 0.000000 103.299510 12.780000 5.000000
1496 0 1 0.000000 104.529266 13.490000 5.000000
1497 0 1 0.000000 104.529266 14.910000 5.000000
1498 0 1 0.000000 105.759022 15.620000 5.000000
1499 0 1 0.000000 105.759022 17.040000 5.000000
1500 0 1 0.000000 106.988778 17.750000 5.000000
1501 0 1 0.000000 106.988778 19.170000 5.000000
1502 0 1 0.000000 108.218534 19.880000 5.000000
1503 0 1 0.000000 108.218534 21.300000 5.000000
1504 0 1 0.000000 109.448291 22.010000 5.000000
1505 0 1 0.000000 109.448291 23.430000 5.000000
1506 0 1 0.000000 110.678047 24.140000 5.000000
1507 0 1 0.000000 110.678047 25.560000 5.000000
1508 0 1 0.000000 111.907803 26.270000 5.000000
1509 0 1 0.000000 111.907803 27.690000 5.000000
1510 0 1 0.000000 113.137559 28.400000 5.000000
1511 0 1 0.000000 113.137559 29.820000 5.000000
1512 0 1 0.000000 114.367315 30.530000 5.000000
1513 0 1 0.000000 114.367315 31.950000 5.000000
1514 0 1 0.000000 115.597071 32.660000 5.000000
1515 0 1 0.000000 115.597071 34.080000 5.000000
1516 0 1 0.000000 116.826827 34.790000 5.000000
1517 0 1 0.000000 116.826827 36.210000 5.000000
1518 0 1 0.000000 118.056583 36.920000 5.000000
1519 0 1 0.000000 118.056583 38.340000 5.000000
1520 0 1 0.000000 119.286339 39.050000 5.000000
1521 0 1 0.000000 98.380486 0.000000 5.000000
1522 0 1 0.000000 99.610242 0.710000 5.000000
1523 0 1 0.000000 99.610242 2.130000 5.000000
1524 0 1 0.000000 100.839998 2.840000 5.000000
1525 0 1 0.000000 100.839998 4.260000 5.000000
1526 0 1 0.000000 102.069754 4.970000 5.000000
1527 0 1 0.000000 102.069754 6.390000 5.000000
1528 0 1 0.000000 103.299510 7.100000 5.000000
1529 0 1 0.000000 103.299510 8.520000 5.000000
1530 0 1 0.000000 104.529266 9.230000 5.000000
1531 0 1 0.000000 104.529266 10.650000 5.000000
1532 0 1 0.000000 105.759022 11.360000 5.000000
1533 0 1 0.000000 105.759022 12.780000 5.000000
1534 0 1 0.000000 106.988778 13.490000 5.000000
1535 0 1 0.000000 106.988778 14.910000 5.000000
1536 0 1 0.000000 108.218534 15.620000 5.000000
1537 0 1 0.000000 108.218534 17.040000 5.000000
1538 0 1 0.000000 109.448291 17.750000 5.000000
1539 0 1 0.000000 109.448291 19.170000 5.000000
1540 0 1 0.000000 110.678047 19.880000 5.000000
1541 0 1 0.000000 110.678047 21.300000 5.000000
1542 0 1 0.000000 111.907803 22.010000 5.000000
1543 0 1 0.000000 111.907803 23.430000 5.000000
1544 0 1 0.000000 113.137559 24.140000 5.000000
1545 0 1 0.000000 113.137559 25.560000 5.000000
1546 0 1 0.000000 114.367315 26.270000 5.000000
1547 0 1 0.000000 114.367315 27.690000 5.000000
1548 0 1 0.000000 115.597071 28.400000 5.000000
1549 0 1 0.000000 115.597071 29.820000 5.000000
1550 0 1 0.000000 116.826827 30.530000 5.000000
1551 0 1 0.000000 116.826827 31.950000 5.000000
1552 0 1 0.000000 118.056583 32.660000 5.000000
1553 0 1 0.000000 118.056583 34.080000 5.000000
1554 0 1 0.000000 119.286339 34.790000 5.000000
1555 0 1 0.000000 119.286339 36.210000 5.000000
1556 0 1 0.000000 120.516095 36.920000 5.000000
1557 0 1 0.000000 120.516095 38.340000 5.000000
1558 0 1 0.000000 121.745851 39.050000 5.000000
1559 0 1 0.000000 100.839998 0.000000 5.000000
1560 0 1 0.000000 102.069754 0.710000 5.000000
1561 0 1 0.000000 102.069754 2.130000 5.000000
1562 0 1 0.000000 103.299510 2.840000 5.000000
1563 0 1 0.000000 103.299510 4.260000 5.000000
1564 0 1 0.000000 104.529266 4.970000 5.000000
1565 0 1 0.000000 104.529266 6.390000 5.000000
1566 0 1 0.000000 105.759022 7.100000 5.000000
1567 0 1 0.000000 105.759022 8.520000 5.000000
1568 0 1 0.000000 106.988778 9.230000 5.000000
1569 0 1 0.000000 106.988778 10.650000 5.000000
1570 0 1 0.000000 108.218534 11.360000 5.000000
1571 0 1 0.000000 108.218534 12.780000 5.000000
1572 0 1 0.000000 109.448291 13.490000 5.000000
1573 0 1 0.000000 109.448291 14.910000 5.000000
1574 0 1 0.000000 110.678047 15.620000 5.000000
1575 0 1 0.000000 110.678047 17.040000 5.000000
1576 0 1 0.000000 111.907803 17.750000 5.000000
1577 0 1 0.000000 111.907803 19.170000 5.000000
1578 0 1 0.000000 113.137559 19.880000 5.000000
1579 0 1 0.000000 113.137559 21.300000 5.000000
1580 0 1 0.000000 114.367315 22.010000 5.000000
1581 0 1 0.000000 114.367315 23.430000 5.000000
1582 0 1 0.000000 115.597071 24.140000 5.000000
1583 0 1 0.000000 115.597071 25.560000 5.000000
1584 0 1 0.000000 116.826827 26.270000 5.000000
1585 0 1 0.000000 116.826827 27.690000 5.000000
1586 0 1 0.000000 118.056583 28.400000 5.000000
1587 0 1 0.000000 118.056583 29.820000 5.000000
1588 0 1 0.000000 119.286339 30.530000 5.000000
1589 0 1 0.000000 119.286339 31.950000 5.000000
1590 0 1 0.000000 120.516095 32.660000 5.000000
1591 0 1 0.000000 120.516095 34.080000 5.000000
1592 0 1 0.000000 121.745851 34.790000 5.000000
1593 0 1 0.000000 121.745851 36.210000 5.000000
1594 0 1 0.000000 122.975607 36.920000 5.000000
1595 0 1 0.000000 122.975607 38.340000 5.000000
1596 0 1 0.000000 124.205363 39.050000 5.000000
1597 0 1 0.000000 103.299510 0.000000 5.000000
1598 0 1 0.000000 104.529266 0.710000 5.000000
1599 0 1 0.000000 104.529266 2.130000 5.000000
1600 0 1 0.000000 105.759022 2.840000 5.000000
1601 0 1 0.000000 105.759022 4.260000 5.000000
1602 0 1 0.000000 106.988778 4.970000 5.000000
1603 0 1 0.000000 106.988778 6.390000 5.000000
1604 0 1 0.000000 108.218534 7.100000 5.000000
1605 0 1 0.000000 108.218534 8.520000 5.000000
1606 0 1 0.000000 109.448291 9.230000 5.000000
1607 0 1 0.000000 109.448291 10.650000 5.000000
1608 0 1 0.000000 110.678047 11.360000 5.000000
1609 0 1 0.000000 110.678047 12.780000 5.000000
1610 0 1 0.000000 111.907803 13.490000 5.000000
1611 0 1 0.000000 111.907803 14.910000 5.000000
1612 0 1 0.000000 113.137559 15.620000 5.000000
1613 0 1 0.000000 113.137559 17.040000 5.000000
1614 0 1 0.000000 114.367315 17.750000 5.000000
1615 0 1 0.000000 114.367315 19.170000 5.000000
1616 0 1 0.000000 115.597071 19.880000 5.000000
1617 0 1 0.000000 115.597071 21.300000 5.000000
1618 0 1 0.000000 116.826827 22.010000 5.000000
1619 0 1 0.000000 116.826827 23.430000 5.000000
1620 0 1 0.000000 118.056583 24.140000 5.000000
1621 0 1 0.000000 118.056583 25.560000 5.000000
1622 0 1 0.000000 119.286339 26.270000 5.000000
1623 0 1 0.000000 119.286339 27.690000 5.000000
1624 0 1 0.000000 120.516095 28.400000 5.000000
1625 0 1 0.000000 120.516095 29.820000 5.000000
1626 0 1 0.000000 121.745851 30.530000 5.000000
1627 0 1 0.000000 121.745851 31.950000 5.000000
1628 0 1 0.000000 122.975607 32.660000 5.000000
1629 0 1 0.000000 122.975607 34.080000 5.000000
1630 0 1 0.000000 124.205363 34.790000 5.000000
1631 0 1 0.000000 124.205363 36.210000 5.000000
1632 0 1 0.000000 125.435119 36.920000 5.000000
1633 0 1 0.000000 125.435119 38.340000 5.000000
1634 0 1 0.000000 126.664876 39.050000 5.000000
1635 0 1 0.000000 105.759022 0.000000 5.000000
1636 0 1 0.000000 106.988778 0.710000 5.000000
1637 0 1 0.000000 106.988778 2.130000 5.000000
1638 0 1 0.000000 108.218534 2.840000 5.000000
1639 0 1 0.000000 108.218534 4.260000 5.000000
1640 0 1 0.000000 109.448291 4.970000 5.000000
1641 0 1 0.000000 109.448291 6.390000 5.000000
1642 0 1 0.000000 110.678047 7.100000 5.000000
1643 0 1 0.000000 110.678047 8.520000 5.000000
1644 0 1 0.000000 111.907803 9.230000 5.000000
1645 0 1 0.000000 111.907803 10.650000 5.000000
1646 0 1 0.000000 113.137559 11.360000 5.000000
1647 0 1 0.000000 113.137559 12.780000 5.000000
1648 0 1 0.000000 114.367315 13.490000 5.000000
1649 0 1 0.000000 114.367315 14.910000 5.000000
1650 0 1 0.000000 115.597071 15.620000 5.000000
1651 0 1 0.000000 115.597071 17.040000 5.000000
1652 0 1 0.000000 116.826827 17.750000 5.000000
1653 0 1 0.000000 116.826827 19.170000 5.000000
1654 0 1 0.000000 118.056583 19.880000 5.000000
1655 0 1 0.000000 118.056583 21.300000 5.000000
1656 0 1 0.000000 119.286339 22.010000 5.000000
1657 0 1 0.000000 119.286339 23.430000 5.000000
1658 0 1 0.000000 120.516095 24.140000 5.000000
1659 0 1 0.000000 120.516095 25.560000 5.000000
1660 0 1 0.000000 121.745851 26.270000 5.000000
1661 0 1 0.000000 121.745851 27.690000 5.000000
1662 0 1 0.000000 122.975607 28.400000 5.000000
1663 0 1 0.000000 122.975607 29.820000 5.000000
1664 0 1 0.000000 124.205363 30.530000 5.000000
1665 0 1 0.000000 124.205363 31.950000 5.000000
1666 0 1 0.000000 125.435119 32.660000 5.000000
1667 0 1 0.000000 125.435119 34.080000 5.000000
1668 0 1 0.000000 126.664876 34.790000 5.000000
1669 0 1 0.000000 126.664876 36.210000 5.000000
1670 0 1 0.000000 127.894632 36.920000 5.000000
1671 0 1 0.000000 127.894632 38.340000 5.000000
1672 0 1 0.000000 129.124388 39.050000 5.000000
1673 0 1 0.000000 108.218534 0.000000 5.000000
1674 0 1 0.000000 109.448291 0.710000 5.000000
1675 0 1 0.000000 109.448291 2.130000 5.000000
1676 0 1 0.000000 110.678047 2.840000 5.000000
1677 0 1 0.000000 110.678047 4.260000 5.000000
1678 0 1 0.000000 111.907803 4.970000 5.000000
1679 0 1 0.000000 111.907803 6.390000 5.000000
1680 0 1 0.000000 113.137559 7.100000 5.000000
1681 0 1 0.000000 113.137559 8.520000 5.000000
1682 0 1 0.000000 114.367315 9.230000 5.000000
1683 0 1 0.000000 114.367315 10.650000 5.000000
1684 0 1 0.000000 115.597071 11.360000 5.000000
1685 0 1 0.000000 115.597071 12.780000 5.000000
1686 0 1 0.000000 116.826827 13.490000 5.000000
1687 0 1 0.000000 116.826827 14.910000 5.000000
1688 0 1 0.000000 118.056583 15.620000 5.000000
1689 0 1 0.000000 118.056583 17.040000 5.000000
1690 0 1 0.000000 119.286339 17.750000 5.000000
1691 0 1 0.000000 119.286339 19.170000 5.000000
1692 0 1 0.000000 120.516095 19.880000 5.000000
1693 0 1 0.000000 120.516095 21.300000 5.000000
1694 0 1 0.000000 121.745851 22.010000 5.000000
1695 0 1 0.000000 121.745851 23.430000 5.000000
1696 0 1 0.000000 122.975607 24.140000 5.000000
1697 0 1 0.000000 122.975607 25.560000 5.000000
1698 0 1 0.000000 124.205363 26.270000 5.000000
1699 0 1 0.000000 124.205363 27.690000 5.000000
1700 0 1 0.000000 125.435119 28.400000 5.000000
1701 0 1 0.000000 125.435119 29.820000 5.000000
1702 0 1 0.000000 126.664876 30.530000 5.000000
1703 0 1 0.000000 126.664876 31.950000 5.000000
1704 0 1 0.000000 127.894632 32.660000 5.000000
1705 0 1 0.000000 127.894632 34.080000 5.000000
1706 0 1 0.000000 129.124388 34.790000 5.000000
1707 0 1 0.000000 129.124388 36.210000 5.000000
1708 0 1 0.000000 130.354144 36.920000 5.000000
1709 0 1 0.000000 130.354144 38.340000 5.000000
1710 0 1 0.000000 131.583900 39.050000 5.000000
1711 0 1 0.000000 110.678047 0.000000 5.000000
1712 0 1 0.000000 111.907803 0.710000 5.000000
1713 0 1 0.000000 111.907803 2.130000 5.000000
1714 0 1 0.000000 113.137559 2.840000 5.000000
1715 0 1 0.000000 113.137559 4.260000 5.000000
1716 0 1 0.000000 114.367315 4.970000 5.000000
1717 0 1 0.000000 114.367315 6.390000 5.000000
1718 0 1 0.000000 115.597071 7.100000 5.000000
1719 0 1 0.000000 115.597071 8.520000 5.000000
1720 0 1 0.000000 116.826827 9.230000 5.000000
1721 0 1 0.000000 116.826827 10.650000 5.000000
1722 0 1 0.000000 118.056583 11.360000 5.000000
1723 0 1 0.000000 118.056583 12.780000 5.000000
1724 0 1 0.000000 119.286339 13.490000 5.000000
1725 0 1 0.000000 119.286339 14.910000 5.000000
1726 0 1 0.000000 120.516095 15.620000 5.000000
1727 0 1 0.000000 120.516095 17.040000 5.000000
1728 0 1 0.000000 121.745851 17.750000 5.000000
1729 0 1 0.000000 121.745851 19.170000 5.000000
1730 0 1 0.000000 122.975607 19.880000 5.000000
1731 0 1 0.000000 122.975607 21.300000 5.000000
1732 0 1 0.000000 124.205363 22.010000 5.000000
1733 0 1 0.000000 124.205363 23.430000 5.000000
1734 0 1 0.000000 125.435119 24.140000 5.000000
1735 0 1 0.000000 125.435119 25.560000 5.000000
1736 0 1 0.000000 126.664876 26.270000 5.000000
1737 0 1 0.000000 126.664876 27.690000 5.000000
1738 0 1 0.000000 127.894632 28.400000 5.000000
1739 0 1 0.000000 127.894632 29.820000 5.000000
1740 0 1 0.000000 129.124388 30.530000 5.000000
1741 0 1 0.000000 129.124388 31.950000 5.000000
1742 0 1 0.000000 130.354144 32.660000 5.000000
1743 0 1 0.000000 130.354144 34.080000 5.000000
1744 0 1 0.000000 131.583900 34.790000 5.000000
1745 0 1 0.000000 131.583900 36.210000 5.000000
1746 0 1 0.000000 132.813656 36.920000 5.000000
1747 0 1 0.000000 132.813656 38.340000 5.000000
1748 0 1 0.000000 134.043412 39.050000 5.000000
1749 0 1 0.000000 113.137559 0.000000 5.000000
1750 0 1 0.000000 114.367315 0.710000 5.000000
1751 0 1 0.000000 114.367315 2.130000 5.000000
1752 0 1 0.000000 115.597071 2.840000 5.000000
1753 0 1 0.000000 115.597071 4.260000 5.000000
1754 0 1 0.000000 116.826827 4.970000 5.000000
1755 0 1 0.000000 116.826827 6.390000 5.000000
1756 0 1 0.000000 118.056583 7.100000 5.000000
1757 0 1 0.000000 118.056583 8.520000 5.000000
1758 0 1 0.000000 119.286339 9.230000 5.000000
1759 0 1 0.000000 119.286339 10.650000 5.000000
1760 0 1 0.000000 120.516095 11.360000 5.000000
1761 0 1 0.000000 120.516095 12.780000 5.000000
1762 0 1 0.000000 121.745851 13.490000 5.000000
1763 0 1 0.000000 121.745851 14.910000 5.000000
1764 0 1 0.000000 122.975607 15.620000 5.000000
1765 0 1 0.000000 122.975607 17.040000 5.000000
1766 0 1 0.000000 124.205363 17.750000 5.000000
1767 0 1 0.000000 124.205363 19.170000 5.000000
1768 0 1 0.000000 125.435119 19.880000 5.000000
1769 0 1 0.000000 125.435119 21.300000 5.000000
1770 0 1 0.000000 126.664876 22.010000 5.000000
1771 0 1 0.000000 126.664876 23.430000 5.000000
1772 0 1 0.000000 127.894632 24.140000 5.000000
1773 0 1 0.000000 127.894632 25.560000 5.000000
1774 0 1 0.000000 129.124388 26.270000 5.000000
1775 0 1 0.000000 129.124388 27.690000 5.000000
1776 0 1 0.000000 130.354144 28.400000 5.000000
1777 0 1 0.000000 130.354144 29.820000 5.000000
1778 0 1 0.000000 131.583900 30.530000 5.000000
1779 0 1 0.000000 131.583900 31.950000 5.000000
1780 0 1 0.000000 132.813656 32.660000 5.000000
1781 0 1 0.000000 132.813656 34.080000 5.000000
1782 0 1 0.000000 134.043412 34.790000 5.000000
1783 0 1 0.000000 134.043412 36.210000 5.000000
1784 0 1 0.000000 135.273168 36.920000 5.000000
1785 0 1 0.000000 135.273168 38.340000 5.000000
1786 0 1 0.000000 136.502924 39.050000 5.000000
1787 0 1 0.000000 115.597071 0.000000 5.000000
1788 0 1 0.000000 116.826827 0.710000 5.000000
1789 0 1 0.000000 116.826827 2.130000 5.000000
1790 0 1 0.000000 118.056583 2.840000 5.000000
1791 0 1 0.000000 118.056583 4.260000 5.000000
1792 0 1 0.000000 119.286339 4.970000 5.000000
1793 0 1 0.000000 119.286339 6.390000 5.000000
1794 0 1 0.000000 120.516095 7.100000 5.000000
1795 0 1 0.000000 120.516095 8.520000 5.000000
1796 0 1 0.000000 121.745851 9.230000 5.000000
1797 0 1 0.000000 121.745851 10.650000 5.000000
1798 0 1 0.000000 122.975607 11.360000 5.000000
1799 0 1 0.000000 122.975607 12.780000 5.000000
1800 0 1 0.000000 124.205363 13.490000 5.000000
1801 0 1 0.000000 124.205363 14.910000 5.000000
1802 0 1 0.000000 125.435119 15.620000 5.000000
1803 0 1 0.000000 125.435119 17.040000 5.000000
1804 0 1 0.000000 126.664876 17.750000 5.000000
1805 0 1 0.000000 126.664876 19.170000 5.000000
1806 0 1 0.000000 127.894632 19.880000 5.000000
1807 0 1 0.000000 127.894632 21.300000 5.000000
1808 0 1 0.000000 129.124388 22.010000 5.000000
1809 0 1 0.000000 129.124388 23.430000 5.000000
1810 0 1 0.000000 130.354144 24.140000 5.000000
1811 0 1 0.000000 130.354144 25.560000 5.000000
1812 0 1 0.000000 131.583900 26.270000 5.000000
1813 0 1 0.000000 131.583900 27.690000 5.000000
1814 0 1 0.000000 132.813656 28.400000 5.000000
1815 0 1 0.000000 132.813656 29.820000 5.000000
1816 0 1 0.000000 134.043412 30.530000 5.000000
1817 0 1 0.000000 134.043412 31.950000 5.000000
1818 0 1 0.000000 135.273168 32.660000 5.000000
1819 0 1 0.000000 135.273168 34.080000 5.000000
1820 0 1 0.000000 136.502924 34.790000 5.000000
1821 0 1 0.000000 136.502924 36.210000 5.000000
1822 0 1 0.000000 137.732680 36.920000 5.000000
1823 0 1 0.000000 137.732680 38.340000 5.000000
1824 0 1 0.000000 138.962436 39.050000 5.000000
1825 0 1 0.000000 118.056583 0.000000 5.000000
1826 0 1 0.000000 119.286339 0.710000 5.000000
1827 0 1 0.000000 119.286339 2.130000 5.000000
1828 0 1 0.000000 120.516095 2.840000 5.000000
1829 0 1 0.000000 120.516095 4.260000 5.000000
1830 0 1 0.000000 121.745851 4.970000 5.000000
1831 0 1 0.000000 121.745851 6.390000 5.000000
1832 0 1 0.000000 122.975607 7.100000 5.000000
1833 0 1 0.000000 122.975607 8.520000 5.000000
1834 0 1 0.000000 124.205363 9.230000 5.000000
1835 0 1 0.000000 124.205363 10.650000 5.000000
1836 0 1 0.000000 125.435119 11.360000 5.000000
1837 0 1 0.000000 125.435119 12.780000 5.000000
1838 0 1 0.000000 126.664876 13.490000 5.000000
1839 0 1 0.000000 126.664876 14.910000 5.000000
1840 0 1 0.000000 127.894632 15.620000 5.000000
1841 0 1 0.000000 127.894632 17.040000 5.000000
1842 0 1 0.000000 129.124388 17.750000 5.000000
1843 0 1 0.000000 129.124388 19.170000 5.000000
1844 0 1 0.000000 130.354144 19.880000 5.000000
1845 0 1 0.000000 130.354144 21.300000 5.000000
1846 0 1 0.000000 131.583900 22.010000 5.000000
1847 0 1 0.000000 131.583900 23.430000 5.000000
1848 0 1 0.000000 132.813656 24.140000 5.000000
1849 0 1 0.000000 132.813656 25.560000 5.000000
1850 0 1 0.000000 134.043412 26.270000 5.000000
1851 0 1 0.000000 134.043412 27.690000 5.000000
1852 0 1 0.000000 135.273168 28.400000 5.000000
1853 0 1 0.000000 135.273168 29.820000 5.000000
1854 0 1 0.000000 136.502924 30.530000 5.000000
1855 0 1 0.000000 136.502924 31.950000 5.000000
1856 0 1 0.000000 137.732680 32.660000 5.000000
1857 0 1 0.000000 137.732680 34.080000 5.000000
1858 0 1 0.000000 138.962436 34.790000 5.000000
1859 0 1 0.000000 138.962436 36.210000 5.000000
1860 0 1 0.000000 140.192192 36.920000 5.000000
1861 0 1 0.000000 140.192192 38.340000 5.000000
1862 0 1 0.000000 141.421948 39.050000 5.000000
1863 0 1 0.000000 120.516095 0.000000 5.000000
1864 0 1 0.000000 121.745851 0.710000 5.000000
1865 0 1 0.000000 121.745851 2.130000 5.000000
1866 0 1 0.000000 122.975607 2.840000 5.000000
1867 0 1 0.000000 122.975607 4.260000 5.000000
1868 0 1 0.000000 124.205363 4.970000 5.000000
1869 0 1 0.000000 124.205363 6.390000 5.000000
1870 0 1 0.000000 125.435119 7.100000 5.000000
1871 0 1 0.000000 125.435119 8.520000 5.000000
1872 0 1 0.000000 126.664876 9.230000 5.000000
1873 0 1 0.000000 126.664876 10.650000 5.000000
1874 0 1 0.000000 127.894632 11.360000 5.000000
1875 0 1 0.000000 127.894632 12.780000 5.000000
1876 0 1 0.000000 129.124388 13.490000 5.000000
1877 0 1 0.000000 129.124388 14.910000 5.000000
1878 0 1 0.000000 130.354144 15.620000 5.000000
1879 0 1 0.000000 130.354144 17.040000 5.000000
1880 0 1 0.000000 131.583900 17.750000 5.000000
1881 0 1 0.000000 131.583900 19.170000 5.000000
1882 0 1 0.000000 132.813656 19.880000 5.000000
1883 0 1 0.000000 132.813656 21.300000 5.000000
1884 0 1 0.000000 134.043412 22.010000 5.000000
1885 0 1 0.000000 134.043412 23.430000 5.000000
1886 0 1 0.000000 135.273168 24.140000 5.000000
1887 0 1 0.000000 135.273168 25.560000 5.000000
1888 0 1 0.000000 136.502924 26.270000 5.000000
1889 0 1 0.000000 136.502924 27.690000 5.000000
1890 0 1 0.000000 137.732680 28.400000 5.000000
1891 0 1 0.000000 137.732680 29.820000 5.000000
1892 0 1 0.000000 138.962436 30.530000 5.000000
1893 0 1 0.000000 138.962436 31.950000 5.000000
1894 0 1 0.000000 140.192192 32.660000 5.000000
1895 0 1 0.000000 140.192192 34.080000 5.000000
1896 0 1 0.000000 141.421948 34.790000 5.000000
1897 0 1 0.000000 141.421948 36.210000 5.000000
1898 0 1 0.000000 142.651705 36.920000 5.000000
1899 0 1 0.000000 142.651705 38.340000 5.000000
1900 0 1 0.000000 143.881461 39.050000 5.000000
1901 0 1 0.000000 122.975607 0.000000 5.000000
1902 0 1 0.000000 124.205363 0.710000 5.000000
1903 0 1 0.000000 124.205363 2.130000 5.000000
1904 0 1 0.000000 125.435119 2.840000 5.000000
1905 0 1 0.000000 125.435119 4.260000 5.000000
1906 0 1 0.000000 126.664876 4.970000 5.000000
1907 0 1 0.000000 126.664876 6.390000 5.000000
1908 0 1 0.000000 127.894632 7.100000 5.000000
1909 0 1 0.000000 127.894632 8.520000 5.000000
1910 0 1 0.000000 129.124388 9.230000 5.000000
1911 0 1 0.000000 129.124388 10.650000 5.000000
1912 0 1 0.000000 130.354144 11.360000 5.000000
1913 0 1 0.000000 130.354144 12.780000 5.000000
1914 0 1 0.000000 131.583900 13.490000 5.000000
1915 0 1 0.000000 131.583900 14.910000 5.000000
1916 0 1 0.000000 132.813656 15.620000 5.000000
1917 0 1 0.000000 132.813656 17.040000 5.000000
1918 0 1 0.000000 134.043412 17.750000 5.000000
1919 0 1 0.000000 134.043412 19.170000 5.000000
1920 0 1 0.000000 135.273168 19.880000 5.000000
1921 0 1 0.000000 135.273168 21.300000 5.000000
1922 0 1 0.000000 136.502924 22.010000 5.000000
1923 0 1 0.000000 136.502924 23.430000 5.000000
1924 0 1 0.000000 137.732680 24.140000 5.000000
1925 0 1 0.000000 137.732680 25.560000 5.000000
1926 0 1 0.000000 138.962436 26.270000 5.000000
1927 0 1 0.000000 138.962436 27.690000 5.000000
1928 0 1 0.000000 140.192192 28.400000 5.000000
1929 0 1 0.000000 140.192192 29.820000 5.000000
1930 0 1 0.000000 141.421948 30.530000 5.000000
1931 0 1 0.000000 141.421948 31.950000 5.000000
1932 0 1 0.000000 142.651705 32.660000 5.000000
1933 0 1 0.000000 142.651705 34.080000 5.000000
1934 0 1 0.000000 143.881461 34.790000 5.000000
1935 0 1 0.000000 143.881461 36.210000 5.000000
1936 0 1 0.000000 145.111217 36.920000 5.000000
1937 0 1 0.000000 145.111217 38.340000 5.000000
1938 0 1 0.000000 146.340973 39.050000 5.000000
1939 0 1 0.000000 125.435119 0.000000 5.000000
1940 0 1 0.000000 126.664876 0.710000 5.000000
1941 0 1 0.000000 126.664876 2.130000 5.000000
1942 0 1 0.000000 127.894632 2.840000 5.000000
1943 0 1 0.000000 127.894632 4.260000 5.000000
1944 0 1 0.000000 129.124388 4.970000 5.000000
1945 0 1 0.000000 129.124388 6.390000 5.000000
1946 0 1 0.000000 130.354144 7.100000 5.000000
1947 0 1 0.000000 130.354144 8.520000 5.000000
1948 0 1 0.000000 131.583900 9.230000 5.000000
1949 0 1 0.000000 131.583900 10.650000 5.000000
1950 0 1 0.000000 132.813656 11.360000 5.000000
1951 0 1 0.000000 132.813656 12.780000 5.000000
1952 0 1 0.000000 134.043412 13.490000 5.000000
1953 0 1 0.000000 134.043412 14.910000 5.000000
1954 0 1 0.000000 135.273168 15.620000 5.000000
1955 0 1 0.000000 135.273168 17.040000 5.000000
1956 0 1 0.000000 136.502924 17.750000 5.000000
1957 0 1 0.000000 136.502924 19.170000 5.000000
1958 0 1 0.000000 137.732680 19.880000 5.000000
1959 0 1 0.000000 137.732680 21.300000 5.000000
1960 0 1 0.000000 138.962436 22.010000 5.000000
1961 0 1 0.000000 138.962436 23.430000 5.000000
1962 0 1 0.000000 140.192192 24.140000 5.000000
1963 0 1 0.000000 140.192192 25.560000 5.000000
1964 0 1 0.000000 141.421948 26.270000 5.000000
1965 0 1 0.000000 141.421948 27.690000 5.000000
1966 0 1 0.000000 142.651705 28.400000 5.000000
1967 0 1 0.000000 142.651705 29.820000 5.000000
1968 0 1 0.000000 143.881461 30.530000 5.000000
1969 0 1 0.000000 143.881461 31.950000 5.000000
1970 0 1 0.000000 145.111217 32.660000 5.000000
1971 0 1 0.000000 145.111217 34.080000 5.000000
1972 0 1 0.000000 146.340973 34.790000 5.000000
1973 0 1 0.000000 146.340973 36.210000 5.000000
1974 0 1 0.000000 147.570729 36.920000 5.000000
1975 0 1 0.000000 147.570729 38.340000 5.000000
1976 0 1 0.000000 148.800485 39.050000 5.000000
1977 0 1 0.000000 127.894632 0.000000 5.000000
1978 0 1 0.000000 129.124388 0.710000 5.000000
1979 0 1 0.000000 129.124388 2.130000 5.000000
1980 0 1 0.000000 130.354144 2.840000 5.000000
1981 0 1 0.000000 130.354144 4.260000 5.000000
1982 0 1 0.000000 131.583900 4.970000 5.000000
1983 0 1 0.000000 131.583900 6.390000 5.000000
1984 0 1 0.000000 132.813656 7.100000 5.000000
1985 0 1 0.000000 132.813656 8.520000 5.000000
1986 0 1 0.000000 134.043412 9.230000 5.000000
1987 0 1 0.000000 134.043412 10.650000 5.000000
1988 0 1 0.000000 135.273168 11.360000 5.000000
1989 0 1 0.000000 135.273168 12.780000 5.000000
1990 0 1 0.000000 136.502924 13.490000 5.000000
1991 0 1 0.000000 136.502924 14.910000 5.000000
1992 0 1 0.000000 137.732680 15.620000 5.000000
1993 0 1 0.000000 137.732680 17.040000 5.000000
1994 0 1 0.000000 138.962436 17.750000 5.000000
1995 0 1 0.000000 138.962436 19.170000 5.000000
1996 0 1 0.000000 140.192192 19.880000 5.000000
1997 0 1 0.000000 140.192192 21.300000 5.000000
1998 0 1 0.000000 141.421948 22.010000 5.000000
1999 0 1 0.000000 141.421948 23.430000 5.000000
2000 0 1 0.000000 142.651705 24.140000 5.000000
2001 0 1 0.000000 142.651705 25.560000 5.000000
2002 0 1 0.000000 143.881461 26.270000 5.000000
2003 0 1 0.000000 143.881461 27.690000 5.000000
2004 0 1 0.000000 145.111217 28.400000 5.000000
2005 0 1 0.000000 145.111217 29.820000 5.000000
2006 0 1 0.000000 146.340973 30.530000 5.000000
2007 0 1 0.000000 146.340973 31.950000 5.000000
2008 0 1 0.000000 147.570729 32.660000 5.000000
2009 0 1 0.000000 147.570729 34.080000 5.000000
2010 0 1 0.000000 148.800485 34.790000 5.000000
2011 0 1 0.000000 148.800485 36.210000 5.000000
2012 0 1 0.000000 130.354144 0.000000 5.000000
2013 0 1 0.000000 131.583900 0.710000 5.000000
2014 0 1 0.000000 131.583900 2.130000 5.000000
2015 0 1 0.000000 132.813656 2.840000 5.000000
2016 0 1 0.000000 132.813656 4.260000 5.000000
2017 0 1 0.000000 134.043412 4.970000 5.000000
2018 0 1 0.000000 134.043412 6.390000 5.000000
2019 0 1 0.000000 135.273168 7.100000 5.000000
2020 0 1 0.000000 135.273168 8.520000 5.000000
2021 0 1 0.000000 136.502924 9.230000 5.000000
2022 0 1 0.000000 136.502924 10.650000 5.000000
2023 0 1 0.000000 137.732680 11.360000 5.000000
2024 0 1 0.000000 137.732680 12.780000 5.000000
2025 0 1 0.000000 138.962436 13.490000 5.000000
2026 0 1 0.000000 138.962436 14.910000 5.000000
2027 0 1 0.000000 140.192192 15.620000 5.000000
2028 0 1 0.000000 140.192192 17.040000 5.000000
2029 0 1 0.000000 141.421948 17.750000 5.000000
2030 0 1 0.000000 141.421948 19.170000 5.000000
2031 0 1 0.000000 142.651705 19.880000 5.000000
2032 0 1 0.000000 142.651705 21.300000 5.000000
2033 0 1 0.000000 143.881461 22.010000 5.000000
2034 0 1 0.000000 143.881461 23.430000 5.000000
2035 0 1 0.000000 145.111217 24.140000 5.000000
2036 0 1 0.000000 145.111217 25.560000 5.000000
2037 0 1 0.000000 146.340973 26.270000 5.000000
2038 0 1 0.000000 146.340973 27.690000 5.000000
2039 0 1 0.000000 147.570729 28.400000 5.000000
2040 0 1 0.000000 147.570729 29.820000 5.000000
2041 0 1 0.000000 148.800485 30.530000 5.000000
2042 0 1 0.000000 148.800485 31.950000 5.000000
2043 0 1 0.000000 132.813656 0.000000 5.000000
2044 0 1 0.000000 134.043412 0.710000 5.000000
2045 0 1 0.000000 134.043412 2.130000 5.000000
2046 0 1 0.000000 135.273168 2.840000 5.000000
2047 0 1 0.000000 135.273168 4.260000 5.000000
2048 0 1 0.000000 136.502924 4.970000 5.000000
2049 0 1 0.000000 136.502924 6.390000 5.000000
2050 0 1 0.000000 137.732680 7.100000 5.000000
2051 0 1 0.000000 137.732680 8.520000 5.000000
2052 0 1 0.000000 138.962436 9.230000 5.000000
2053 0 1 0.000000 138.962436 10.650000 5.000000
2054 0 1 0.000000 140.192192 11.360000 5.000000
2055 0 1 0.000000 140.192192 12.780000 5.000000
2056 0 1 0.000000 141.421948 13.490000 5.000000
2057 0 1 0.000000 141.421948 14.910000 5.000000
2058 0 1 0.000000 142.651705 15.620000 5.000000
2059 0 1 0.000000 142.651705 17.040000 5.000000
2060 0 1 0.000000 143.881461 17.750000 5.000000
2061 0 1 0.000000 143.881461 19.170000 5.000000
2062 0 1 0.000000 145.111217 19.880000 5.000000
2063 0 1 0.000000 145.111217 21.300000 5.000000
2064 0 1 0.000000 146.340973 22.010000 5.000000
2065 0 1 0.000000 146.340973 23.430000 5.000000
2066 0 1 0.000000 147.570729 24.140000 5.000000
2067 0 1 0.000000 147.570729 25.560000 5.000000
2068 0 1 0.000000 148.800485 26.270000 5.000000
2069 0 1 0.000000 148.800485 27.690000 5.000000
2070 0 1 0.000000 135.273168 0.000000 5.000000
2071 0 1 0.000000 136.502924 0.710000 5.000000
2072 0 1 0.000000 136.502924 2.130000 5.000000
2073 0 1 0.000000 137.732680 2.840000 5.000000
2074 0 1 0.000000 137.732680 4.260000 5.000000
2075 0 1 0.000000 138.962436 4.970000 5.000000
2076 0 1 0.000000 138.962436 6.390000 5.000000
2077 0 1 0.000000 140.192192 7.100000 5.000000
2078 0 1 0.000000 140.192192 8.520000 5.000000
2079 0 1 0.000000 141.421948 9.230000 5.000000
2080 0 1 0.000000 141.421948 10.650000 5.000000
2081 0 1 0.000000 142.651705 11.360000 5.000000
2082 0 1 0.000000 142.651705 12.780000 5.000000
2083 0 1 0.000000 143.881461 13.490000 5.000000
2084 0 1 0.000000 143.881461 14.910000 5.000000
2085 0 1 0.000000 145.111217 15.620000 5.000000
2086 0 1 0.000000 145.111217 17.040000 5.000000
2087 0 1 0.000000 146.340973 17.750000 5.000000
2088 0 1 0.000000 146.340973 19.170000 5.000000
2089 0 1 0.000000 147.570729 19.880000 5.000000
2090 0 1 0.000000 147.570729 21.300000 5.000000
2091 0 1 0.000000 148.800485 22.010000 5.000000
2092 0 1 0.000000 148.800485 23.430000 5.000000
2093 0 1 0.000000 137.732680 0.000000 5.000000
2094 0 1 0.000000 138.962436 0.710000 5.000000
2095 0 1 0.000000 138.962436 2.130000 5.000000
2096 0 1 0.000000 140.192192 2.840000 5.000000
2097 0 1 0.000000 140.192192 4.260000 5.000000
2098 0 1 0.000000 141.421948 4.970000 5.000000
2099 0 1 0.000000 141.421948 6.390000 5.000000
2100 0 1 0.000000 142.651705 7.100000 5.000000
2101 0 1 0.000000 142.651705 8.520000 5.000000
2102 0 1 0.000000 143.881461 9.230000 5.000000
2103 0 1 0.000000 143.881461 10.650000 5.000000
2104 0 1 0.000000 145.111217 11.360000 5.000000
2105 0 1 0.000000 145.111217 12.780000 5.000000
2106 0 1 0.000000 146.340973 13.490000 5.000000
2107 0 1 0.000000 146.340973 14.910000 5.000000
2108 0 1 0.000000 147.570729 15.620000 5.000000
2109 0 1 0.000000 147.570729 17.040000 5.000000
2110 0 1 0.000000 148.800485 17.750000 5.000000
2111 0 1 0.000000 148.800485 19.170000 5.000000
2112 0 1 0.000000 140.192192 0.000000 5.000000
2113 0 1 0.000000 141.421948 0.710000 5.000000
2114 0 1 0.000000 141.421948 2.130000 5.000000
2115 0 1 0.000000 142.651705 2.840000 5.000000
2116 0 1 0.000000 142.651705 4.260000 5.000000
2117 0 1 0.000000 143.881461 4.970000 5.000000
2118 0 1 0.000000 143.881461 6.390000 5.000000
2119 0 1 0.000000 145.111217 7.100000 5.000000
2120 0 1 0.000000 145.111217 8.520000 5.000000
2121 0 1 0.000000 146.340973 9.230000 5.000000
2122 0 1 0.000000 146.340973 10.650000 5.000000
2123 0 1 0.000000 147.570729 11.360000 5.000000
2124 0 1 0.000000 147.570729 12.780000 5.000000
2125 0 1 0.000000 148.800485 13.490000 5.000000
2126 0 1 0.000000 148.800485 14.910000 5.000000
2127 0 1 0.000000 142.651705 0.000000 5.000000
2128 0 1 0.000000 143.881461 0.710000 5.000000
2129 0 1 0.000000 143.881461 2.130000 5.000000
2130 0 1 0.000000 145.111217 2.840000 5.000000
2131 0 1 0.000000 145.111217 4.260000 5.000000
2132 0 1 0.000000 146.340973 4.970000 5.000000
2133 0 1 0.000000 146.340973 6.390000 5.000000
2134 0 1 0.000000 147.570729 7.100000 5.000000
2135 0 1 0.000000 147.570729 8.520000 5.000000
2136 0 1 0.000000 148.800485 9.230000 5.000000
2137 0 1 0.000000 148.800485 10.650000 5.000000
2138 0 1 0.000000 145.111217 0.000000 5.000000
2139 0 1 0.000000 146.340973 0.710000 5.000000
2140 0 1 0.000000 146.340973 2.130000 5.000000
2141 0 1 0.000000 147.570729 2.840000 5.000000
2142 0 1 0.000000 147.570729 4.260000 5.000000
2143 0 1 0.000000 148.800485 4.970000 5.000000
2144 0 1 0.000000 148.800485 6.390000 5.000000
2145 0 1 0.000000 147.570729 0.000000 5.000000
2146 0 1 0.000000 148.800485 0.710000 5.000000
2147 0 1 0.000000 148.800485 2.130000 5.000000
2148 0 1 0.000000 0.000000 0.000000 15.000000
2149 0 1 0.000000 1.229756 0.710000 15.000000
2150 0 1 0.000000 1.229756 2.130000 15.000000
2151 0 1 0.000000 2.459512 2.840000 15.000000
2152 0 1 0.000000 2.459512 4.260000 15.000000
2153 0 1 0.000000 3.689268 4.970000 15.000000
2154 0 1 0.000000 3.689268 6.390000 15.000000
2155 0 1 0.000000 4.919024 7.100000 15.000000
2156 0 1 0.000000 4.919024 8.520000 15.000000
2157 0 1 0.000000 6.148780 9.230000 15.000000
2158 0 1 0.000000 6.148780 10.650000 15.000000
2159 0 1 0.000000 7.378536 11.360000 15.000000
2160 0 1 0.000000 7.378536 12.780000 15.000000
2161 0 1 0.000000 8.608293 13.490000 15.000000
2162 0 1 0.000000 8.608293 14.910000 15.000000
2163 0 1 0.000000 9.838049 15.620000 15.000000
2164 0 1 0.000000 9.838049 17.040000 15.000000
2165 0 1 0.000000 11.067805 17.750000 15.000000
2166 0 1 0.000000 11.067805 19.170000 15.000000
2167 0 1 0.000000 12.297561 19.880000 15.000000
2168 0 1 0.000000 12.297561 21.300000 15.000000
2169 0 1 0.000000 13.527317 22.010000 15.000000
2170 0 1 0.000000 13.527317 23.430000 15.000000
2171 0 1 0.000000 14.757073 24.140000 15.000000
2172 0 1 0.000000 14.757073 25.560000 15.000000
2173 0 1 0.000000 15.986829 26.270000 15.000000
2174 0 1 0.000000 15.986829 27.690000 15.000000
2175 0 1 0.000000 17.216585 28.400000 15.000000
2176 0 1 0.000000 17.216585 29.820000 15.000000
2177 0 1 0.000000 18.446341 30.530000 15.000000
2178 0 1 0.000000 18.446341 31.950000 15.000000
2179 0 1 0.000000 19.676097 32.660000 15.000000
2180 0 1 0.000000 19.676097 34.080000 15.000000
2181 0 1 0.000000 20.905853 34.790000 15.000000
2182 0 1 0.000000 20.905853 36.210000 15.000000
2183 0 1 0.000000 22.135609 36.920000 15.000000
2184 0 1 0.000000 22.135609 38.340000 15.000000
2185 0 1 0.000000 23.365365 39.050000 15.000000
2186 0 1 0.000000 2.459512 0.000000 15.000000
2187 0 1 0.000000 3.689268 0.710000 15.000000
2188 0 1 0.000000 3.689268 2.130000 15.000000
2189 0 1 0.000000 4.919024 2.840000 15.000000
2190 0 1 0.000000 4.919024 4.260000 15.000000
2191 0 1 0.000000 6.148780 4.970000 15.000000
2192 0 1 0.000000 6.148780 6.390000 15.000000
2193 0 1 0.000000 7.378536 7.100000 15.000000
2194 0 1 0.000000 7.378536 8.520000 15.000000
2195 0 1 0.000000 8.608293 9.230000 15.000000
2196 0 1 0.000000 8.608293 10.650000 15.000000
2197 0 1 0.000000 9.838049 11.360000 15.000000
2198 0 1 0.000000 9.838049 12.780000 15.000000
2199 0 1 0.000000 11.067805 13.490000 15.000000
2200 0 1 0.000000 11.067805 14.910000 15.000000
2201 0 1 0.000000 12.297561 15.620000 15.000000
2202 0 1 0.000000 12.297561 17.040000 15.000000
2203 0 1 0.000000 13.527317 17.750000 15.000000
2204 0 1 0.000000 13.527317 19.170000 15.000000
2205 0 1 0.000000 14.757073 19.880000 15.000000
2206 0 1 0.000000 14.757073 21.300000 15.000000
2207 0 1 0.000000 15.986829 22.010000 15.000000
2208 0 1 0.000000 15.986829 23.430000 15.000000
2209 0 1 0.000000 17.216585 24.140000 15.000000
2210 0 1 0.000000 17.216585 25.560000 15.000000
2211 0 1 0.000000 18.446341 26.270000 15.000000
2212 0 1 0.000000 18.446341 27.690000 15.000000
2213 0 1 0.000000 19.676097 28.400000 15.000000
2214 0 1 0.000000 19.676097 29.820000 15.000000
2215 0 1 0.000000 20.905853 30.530000 15.000000
2216 0 1 0.000000 20.905853 31.950000 15.000000
2217 0 1 0.000000 22.135609 32.660000 15.000000
2218 0 1 0.000000 22.135609 34.080000 15.000000
2219 0 1 0.000000 23.365365 34.790000 15.000000
2220 0 1 0.000000 23.365365 36.210000 15.000000
2221 0 1 0.000000 24.595121 36.920000 15.000000
2222 0 1 0.000000 24.595121 38.340000 15.000000
2223 0 1 0.000000 25.824878 39.050000 15.000000
2224 0 1 0.000000 4.919024 0.000000 15.000000
2225 0 1 0.000000 6.148780 0.710000 15.000000
2226 0 1 0.000000 6.148780 2.130000 15.000000
2227 0 1 0.000000 7.378536 2.840000 15.000000
2228 0 1 0.000000 7.378536 4.260000 15.000000
2229 0 1 0.000000 8.608293 4.970000 15.000000
2230 0 1 0.000000 8.608293 6.390000 15.000000
2231 0 1 0.000000 9.838049 7.100000 15.000000
2232 0 1 0.000000 9.838049 8.520000 15.000000
2233 0 1 0.000000 11.067805 9.230000 15.000000
2234 0 1 0.000000 11.067805 10.650000 15.000000
2235 0 1 0.000000 12.297561 11.360000 15.000000
2236 0 1 0.000000 12.297561 12.780000 15.000000
2237 0 1 0.000000 13.527317 13.490000 15.000000
2238 0 1 0.000000 13.527317 14.910000 15.000000
2239 0 1 0.000000 14.757073 15.620000 15.000000
2240 0 1 0.000000 14.757073 17.040000 15.000000
2241 0 1 0.000000 15.986829 17.750000 15.000000
2242 0 1 0.000000 15.986829 19.170000 15.000000
2243 0 1 0.000000 17.216585 19.880000 15.000000
2244 0 1 0.000000 17.216585 21.300000 15.000000
2245 0 1 0.000000 18.446341 22.010000 15.000000
2246 0 1 0.000000 18.446341 23.430000 15.000000
2247 0 1 0.000000 19.676097 24.140000 15.000000
2248 0 1 0.000000 19.676097 25.560000 15.000000
2249 0 1 0.000000 20.905853 26.270000 15.000000
2250 0 1 0.000000 20.905853 27.690000 15.000000
2251 0 1 0.000000 22.135609 28.400000 15.000000
2252 0 1 0.000000 22.135609 29.820000 15.000000
2253 0 1 0.000000 23.365365 30.530000 15.000000
2254 0 1 0.000000 23.365365 31.950000 15.000000
2255 0 1 0.000000 24.595121 32.660000 15.000000
2256 0 1 0.000000 24.595121 34.080000 15.000000
2257 0 1 0.000000 25.824878 34.790000 15.000000
2258 0 1 0.000000 25.824878 36.210000 15.000000
2259 0 1 0.000000 27.054634 36.920000 15.000000
2260 0 1 0.000000 27.054634 38.340000 15.000000
2261 0 1 0.000000 28.284390 39.050000 15.000000
2262 0 1 0.000000 7.378536 0.000000 15.000000
2263 0 1 0.000000 8.608293 0.710000 15.000000
2264 0 1 0.000000 8.608293 2.130000 15.000000
2265 0 1 0.000000 9.838049 2.840000 15.000000
2266 0 1 0.000000 9.838049 4.260000 15.000000
2267 0 1 0.000000 11.067805 4.970000 15.000000
2268 0 1 0.000000 11.067805 6.390000 15.000000
2269 0 1 0.000000 12.297561 7.100000 15.000000
2270 0 1 0.000000 12.297561 8.520000 15.000000
2271 0 1 0.000000 13.527317 9.230000 15.000000
2272 0 1 0.000000 13.527317 10.650000 15.000000
2273 0 1 0.000000 14.757073 11.360000 15.000000
2274 0 1 0.000000 14.757073 12.780000 15.000000
2275 0 1 0.000000 15.986829 13.490000 15.000000
2276 0 1 0.000000 15.986829 14.910000 15.000000
2277 0 1 0.000000 17.216585 15.620000 15.000000
2278 0 1 0.000000 17.216585 17.040000 15.000000
2279 0 1 0.000000 18.446341 17.750000 15.000000
2280 0 1 0.000000 18.446341 19.170000 15.000000
2281 0 1 0.000000 19.676097 19.880000 15.000000
2282 0 1 0.000000 19.676097 21.300000 15.000000
2283 0 1 0.000000 20.905853 22.010000 15.000000
2284 0 1 0.000000 20.905853 23.430000 15.000000
2285 0 1 0.000000 22.135609 24.140000 15.000000
2286 0 1 0.000000 22.135609 25.560000 15.000000
2287 0 1 0.000000 23.365365 26.270000 15.000000
2288 0 1 0.000000 23.365365 27.690000 15.000000
2289 0 1 0.000000 24.595121 28.400000 15.000000
2290 0 1 0.000000 24.595121 29.820000 15.000000
2291 0 1 0.000000 25.824878 30.530000 15.000000
2292 0 1 0.000000 25.824878 31.950000 15.000000
2293 0 1 0.000000 27.054634 32.660000 15.000000
2294 0 1 0.000000 27.054634 34.080000 15.000000
2295 0 1 0.000000 28.284390 34.790000 15.000000
2296 0 1 0.000000 28.284390 36.210000 15.000000
2297 0 1 0.000000 29.514146 36.920000 15.000000
2298 0 1 0.000000 29.514146 38.340000 15.000000
2299 0 1 0.000000 30.743902 39.050000 15.000000
2300 0 1 0.000000 9.838049 0.000000 15.000000
2301 0 1 0.000000 11.067805 0.710000 15.000000
2302 0 1 0.000000 11.067805 2.130000 15.000000
2303 0 1 0.000000 12.297561 2.840000 15.000000
2304 0 1 0.000000 12.297561 4.260000 15.000000
2305 0 1 0.000000 13.527317 4.970000 15.000000
2306 0 1 0.000000 13.527317 6.390000 15.000000
2307 0 1 0.000000 14.757073 7.100000 15.000000
2308 0 1 0.000000 14.757073 8.520000 15.000000
2309 0 1 0.000000 15.986829 9.230000 15.000000
2310 0 1 0.000000 15.986829 10.650000 15.000000
2311 0 1 0.000000 17.216585 11.360000 15.000000
2312 0 1 0.000000 17.216585 12.780000 15.000000
2313 0 1 0.000000 18.446341 13.490000 15.000000
2314 0 1 0.000000 18.446341 14.910000 15.000000
2315 0 1 0.000000 19.676097 15.620000 15.000000
2316 0 1 0.000000 19.676097 17.040000 15.000000
2317 0 1 0.000000 20.905853 17.750000 15.000000
2318 0 1 0.000000 20.905853 19.170000 15.000000
2319 0 1 0.000000 22.135609 19.880000 15.000000
2320 0 1 0.000000 22.135609 21.300000 15.000000
2321 0 1 0.000000 23.365365 22.010000 15.000000
2322 0 1 0.000000 23.365365 23.430000 15.000000
2323 0 1 0.000000 24.595121 24.140000 15.000000
2324 0 1 0.000000 24.595121 25.560000 15.000000
2325 0 1 0.000000 25.824878 26.270000 15.000000
2326 0 1 0.000000 25.824878 27.690000 15.000000
2327 0 1 0.000000 27.054634 28.400000 15.000000
2328 0 1 0.000000 27.054634 29.820000 15.000000
2329 0 1 0.000000 28.284390 30.530000 15.000000
2330 0 1 0.000000 28.284390 31.950000 15.000000
2331 0 1 0.000000 29.514146 32.660000 15.000000
2332 0 1 0.000000 29.514146 34.080000 15.000000
2333 0 1 0.000000 30.743902 34.790000 15.000000
2334 0 1 0.000000 30.743902 36.210000 15.000000
2335 0 1 0.000000 31.973658 36.920000 15.000000
2336 0 1 0.000000 31.973658 38.340000 15.000000
2337 0 1 0.000000 33.203414 39.050000 15.000000
2338 0 1 0.000000 12.297561 0.000000 15.000000
2339 0 1 0.000000 13.527317 0.710000 15.000000
2340 0 1 0.000000 13.527317 2.130000 15.000000
2341 0 1 0.000000 14.757073 2.840000 15.000000
2342 0 1 0.000000 14.757073 4.260000 15.000000
2343 0 1 0.000000 15.986829 4.970000 15.000000
2344 0 1 0.000000 15.986829 6.390000 15.000000
2345 0 1 0.000000 17.216585 7.100000 15.000000
2346 0 1 0.000000 17.216585 8.520000 15.000000
2347 0 1 0.000000 18.446341 9.230000 15.000000
2348 0 1 0.000000 18.446341 10.650000 15.000000
2349 0 1 0.000000 19.676097 11.360000 15.000000
2350 0 1 0.000000 19.676097 12.780000 15.000000
2351 0 1 0.000000 20.905853 13.490000 15.000000
2352 0 1 0.000000 20.905853 14.910000 15.000000
2353 0 1 0.000000 22.135609 15.620000 15.000000
2354 0 1 0.000000 22.135609 17.040000 15.000000
2355 0 1 0.000000 23.365365 17.750000 15.000000
2356 0 1 0.000000 23.365365 19.170000 15.000000
2357 0 1 0.000000 24.595121 19.880000 15.000000
2358 0 1 0.000000 24.595121 21.300000 15.000000
2359 0 1 0.000000 25.824878 22.010000 15.000000
2360 0 1 0.000000 25.824878 23.430000 15.000000
2361 0 1 0.000000 27.054634 24.140000 15.000000
2362 0 1 0.000000 27.054634 25.560000 15.000000
2363 0 1 0.000000 28.284390 26.270000 15.000000
2364 0 1 0.000000 28.284390 27.690000 15.000000
2365 0 1 0.000000 29.514146 28.400000 15.000000
2366 0 1 0.000000 29.514146 29.820000 15.000000
2367 0 1 0.000000 30.743902 30.530000 15.000000
2368 0 1 0.000000 30.743902 31.950000 15.000000
2369 0 1 0.000000 31.973658 32.660000 15.000000
2370 0 1 0.000000 31.973658 34.080000 15.000000
2371 0 1 0.000000 33.203414 34.790000 15.000000
2372 0 1 0.000000 33.203414 36.210000 15.000000
2373 0 1 0.000000 34.433170 36.920000 15.000000
2374 0 1 0.000000 34.433170 38.340000 15.000000
2375 0 1 0.000000 35.662926 39.050000 15.000000
2376 0 1 0.000000 14.757073 0.000000 15.000000
2377 0 1 0.000000 15.986829 0.710000 15.000000
2378 0 1 0.000000 15.986829 2.130000 15.000000
2379 0 1 0.000000 17.216585 2.840000 15.000000
2380 0 1 0.000000 17.216585 4.260000 15.000000
2381 0 1 0.000000 18.446341 4.970000 15.000000
2382 0 1 0.000000 18.446341 6.390000 15.000000
2383 0 1 0.000000 19.676097 7.100000 15.000000
2384 0 1 0.000000 19.676097 8.520000 15.000000
2385 0 1 0.000000 20.905853 9.230000 15.000000
2386 0 1 0.000000 20.905853 10.650000 15.000000
2387 0 1 0.000000 22.135609 11.360000 15.000000
2388 0 1 0.000000 22.135609 12.780000 15.000000
2389 0 1 0.000000 23.365365 13.490000 15.000000
2390 0 1 0.000000 23.365365 14.910000 15.000000
2391 0 1 0.000000 24.595121 15.620000 15.000000
2392 0 1 0.000000 24.595121 17.040000 15.000000
2393 0 1 0.000000 25.824878 17.750000 15.000000
2394 0 1 0.000000 25.824878 19.170000 15.000000
2395 0 1 0.000000 27.054634 19.880000 15.000000
2396 0 1 0.000000 27.054634 21.300000 15.000000
2397 0 1 0.000000 28.284390 22.010000 15.000000
2398 0 1 0.000000 28.284390 23.430000 15.000000
2399 0 1 0.000000 29.514146 24.140000 15.000000
2400 0 1 0.000000 29.514146 25.560000 15.000000
2401 0 1 0.000000 30.743902 26.270000 15.000000
2402 0 1 0.000000 30.743902 27.690000 15.000000
2403 0 1 0.000000 31.973658 28.400000 15.000000
2404 0 1 0.000000 31.973658 29.820000 15.000000
2405 0 1 0.000000 33.203414 30.530000 15.000000
2406 0 1 0.000000 33.203414 31.950000 15.000000
2407 0 1 0.000000 34.433170 32.660000 15.000000
2408 0 1 0.000000 34.433170 34.080000 15.000000
2409 0 1 0.000000 35.662926 34.790000 15.000000
2410 0 1 0.000000 35.662926 36.210000 15.000000
2411 0 1 0.000000 36.892682 36.920000 15.000000
2412 0 1 0.000000 36.892682 38.340000 15.000000
2413 0 1 0.000000 38.122438 39.050000 15.000000
2414 0 1 0.000000 17.216585 0.000000 15.000000
2415 0 1 0.000000 18.446341 0.710000 15.000000
2416 0 1 0.000000 18.446341 2.130000 15.000000
2417 0 1 0.000000 19.676097 2.840000 15.000000
2418 0 1 0.000000 19.676097 4.260000 15.000000
2419 0 1 0.000000 20.905853 4.970000 15.000000
2420 0 1 0.000000 20.905853 6.390000 15.000000
2421 0 1 0.000000 22.135609 7.100000 15.000000
2422 0 1 0.000000 22.135609 8.520000 15.000000
2423 0 1 0.000000 23.365365 9.230000 15.000000
2424 0 1 0.000000 23.365365 10.650000 15.000000
2425 0 1 0.000000 24.595121 11.360000 15.000000
2426 0 1 0.000000 24.595121 12.780000 15.000000
2427 0 1 0.000000 25.824878 13.490000 15.000000
2428 0 1 0.000000 25.824878 14.910000 15.000000
2429 0 1 0.000000 27.054634 15.620000 15.000000
2430 0 1 0.000000 27.054634 17.040000 15.000000
2431 0 1 0.000000 28.284390 17.750000 15.000000
2432 0 1 0.000000 28.284390 19.170000 15.000000
2433 0 1 0.000000 29.514146 19.880000 15.000000
2434 0 1 0.000000 29.514146 21.300000 15.000000
2435 0 1 0.000000 30.743902 22.010000 15.000000
2436 0 1 0.000000 30.743902 23.430000 15.000000
2437 0 1 0.000000 31.973658 24.140000 15.000000
2438 0 1 0.000000 31.973658 25.560000 15.000000
2439 0 1 0.000000 33.203414 26.270000 15.000000
2440 0 1 0.000000 33.203414 27.690000 15.000000
2441 0 1 0.000000 34.433170 28.400000 15.000000
2442 0 1 0.000000 34.433170 29.820000 15.000000
2443 0 1 0.000000 35.662926 30.530000 15.000000
2444 0 1 0.000000 35.662926 31.950000 15.000000
2445 0 1 0.000000 36.892682 32.660000 15.000000
2446 0 1 0.000000 36.892682 34.080000 15.000000
2447 0 1 0.000000 38.122438 34.790000 15.000000
2448 0 1 0.000000 38.122438 36.210000 15.000000
2449 0 1 0.000000 39.352194 36.920000 15.000000
2450 0 1 0.000000 39.352194 38.340000 15.000000
2451 0 1 0.000000 40.581950 39.050000 15.000000
2452 0 1 0.000000 19.676097 0.000000 15.000000
2453 0 1 0.000000 20.905853 0.710000 15.000000
2454 0 1 0.000000 20.905853 2.130000 15.000000
2455 0 1 0.000000 22.135609 2.840000 15.000000
2456 0 1 0.000000 22.135609 4.260000 15.000000
2457 0 1 0.000000 23.365365 4.970000 15.000000
2458 0 1 0.000000 23.365365 6.390000 15.000000
2459 0 1 0.000000 24.595121 7.100000 15.000000
2460 0 1 0.000000 24.595121 8.520000 15.000000
2461 0 1 0.000000 25.824878 9.230000 15.000000
2462 0 1 0.000000 25.824878 10.650000 15.000000
2463 0 1 0.000000 27.054634 11.360000 15.000000
2464 0 1 0.000000 27.054634 12.780000 15.000000
2465 0 1 0.000000 28.284390 13.490000 15.000000
2466 0 1 0.000000 28.284390 14.910000 15.000000
2467 0 1 0.000000 29.514146 15.620000 15.000000
2468 0 1 0.000000 29.514146 17.040000 15.000000
2469 0 1 0.000000 30.743902 17.750000 15.000000
2470 0 1 0.000000 30.743902 19.170000 15.000000
2471 0 1 0.000000 31.973658 19.880000 15.000000
2472 0 1 0.000000 31.973658 21.300000 15.000000
2473 0 1 0.000000 33.203414 22.010000 15.000000
2474 0 1 0.000000 33.203414 23.430000 15.000000
2475 0 1 0.000000 34.433170 24.140000 15.000000
2476 0 1 0.000000 34.433170 25.560000 15.000000
2477 0 1 0.000000 35.662926 26.270000 15.000000
2478 0 1 0.000000 35.662926 27.690000 15.000000
2479 0 1 0.000000 36.892682 28.400000 15.000000
2480 0 1 0.000000 36.892682 29.820000 15.000000
2481 0 1 0.000000 38.122438 30.530000 15.000000
2482 0 1 0.000000 38.122438 31.950000 15.000000
2483 0 1 0.000000 39.352194 32.660000 15.000000
2484 0 1 0.000000 39.352194 34.080000 15.000000
2485 0 1 0.000000 40.581950 34.790000 15.000000
2486 0 1 0.000000 40.581950 36.210000 15.000000
2487 0 1 0.000000 41.811706 36.920000 15.000000
2488 0 1 0.000000 41.811706 38.340000 15.000000
2489 0 1 0.000000 43.041463 39.050000 15.000000
2490 0 1 0.000000 22.135609 0.000000 15.000000
2491 0 1 0.000000 23.365365 0.710000 15.000000
2492 0 1 0.000000 23.365365 2.130000 15.000000
2493 0 1 0.000000 24.595121 2.840000 15.000000
2494 0 1 0.000000 24.595121 4.260000 15.000000
2495 0 1 0.000000 25.824878 4.970000 15.000000
2496 0 1 0.000000 25.824878 6.390000 15.000000
2497 0 1 0.000000 27.054634 7.100000 15.000000
2498 0 1 0.000000 27.054634 8.520000 15.000000
2499 0 1 0.000000 28.284390 9.230000 15.000000
2500 0 1 0.000000 28.284390 10.650000 15.000000
2501 0 1 0.000000 29.514146 11.360000 15.000000
2502 0 1 0.000000 29.514146 12.780000 15.000000
2503 0 1 0.000000 30.743902 13.490000 15.000000
2504 0 1 0.000000 30.743902 14.910000 15.000000
2505 0 1 0.000000 31.973658 15.620000 15.000000
2506 0 1 0.000000 31.973658 17.040000 15.000000
2507 0 1 0.000000 33.203414 17.750000 15.000000
2508 0 1 0.000000 33.203414 19.170000 15.000000
2509 0 1 0.000000 34.433170 19.880000 15.000000
2510 0 1 0.000000 34.433170 21.300000 15.000000
2511 0 1 0.000000 35.662926 22.010000 15.000000
2512 0 1 0.000000 35.662926 23.430000 15.000000
2513 0 1 0.000000 36.892682 24.140000 15.000000
2514 0 1 0.000000 36.892682 25.560000 15.000000
2515 0 1 0.000000 38.122438 26.270000 15.000000
2516 0 1 0.000000 38.122438 27.690000 15.000000
2517 0 1 0.000000 39.352194 28.400000 15.000000
2518 0 1 0.000000 39.352194 29.820000 15.000000
2519 0 1 0.000000 40.581950 30.530000 15.000000
2520 0 1 0.000000 40.581950 31.950000 15.000000
2521 0 1 0.000000 41.811706 32.660000 15.000000
2522 0 1 0.000000 41.811706 34.080000 15.000000
2523 0 1 0.000000 43.041463 34.790000 15.000000
2524 0 1 0.000000 43.041463 36.210000 15.000000
2525 0 1 0.000000 44.271219 36.920000 15.000000
2526 0 1 0.000000 44.271219 38.340000 15.000000
2527 0 1 0.000000 45.500975 39.050000 15.000000
2528 0 1 0.000000 24.595121 0.000000 15.000000
2529 0 1 0.000000 25.824878 0.710000 15.000000
2530 0 1 0.000000 25.824878 2.130000 15.000000
2531 0 1 0.000000 27.054634 2.840000 15.000000
2532 0 1 0.000000 27.054634 4.260000 15.000000
2533 0 1 0.000000 28.284390 4.970000 15.000000
2534 0 1 0.000000 28.284390 6.390000 15.000000
2535 0 1 0.000000 29.514146 7.100000 15.000000
2536 0 1 0.000000 29.514146 8.520000 15.000000
2537 0 1 0.000000 30.743902 9.230000 15.000000
2538 0 1 0.000000 30.743902 10.650000 15.000000
2539 0 1 0.000000 31.973658 11.360000 15.000000
2540 0 1 0.000000 31.973658 12.780000 15.000000
2541 0 1 0.000000 33.203414 13.490000 15.000000
2542 0 1 0.000000 33.203414 14.910000 15.000000
2543 0 1 0.000000 34.433170 15.620000 15.000000
2544 0 1 0.000000 34.433170 17.040000 15.000000
2545 0 1 0.000000 35.662926 17.750000 15.000000
2546 0 1 0.000000 35.662926 19.170000 15.000000
2547 0 1 0.000000 36.892682 19.880000 15.000000
2548 0 1 0.000000 36.892682 21.300000 15.000000
2549 0 1 0.000000 38.122438 22.010000 15.000000
2550 0 1 0.000000 38.122438 23.430000 15.000000
2551 0 1 0.000000 39.352194 24.140000 15.000000
2552 0 1 0.000000 39.352194 25.560000 15.000000
2553 0 1 0.000000 40.581950 26.270000 15.000000
2554 0 1 0.000000 40.581950 27.690000 15.000000
2555 0 1 0.000000 41.811706 28.400000 15.000000
2556 0 1 0.000000 41.811706 29.820000 15.000000
2557 0 1 0.000000 43.041463 30.530000 15.000000
2558 0 1 0.000000 43.041463 31.950000 15.000000
2559 0 1 0.000000 44.271219 32.660000 15.000000
2560 0 1 0.000000 44.271219 34.080000 15.000000
2561 0 1 0.000000 45.500975 34.790000 15.000000
2562 0 1 0.000000 45.500975 36.210000 15.000000
2563 0 1 0.000000 46.730731 36.920000 15.000000
2564 0 1 0.000000 46.730731 38.340000 15.000000
2565 0 1 0.000000 47.960487 39.050000 15.000000
2566 0 1 0.000000 27.054634 0.000000 15.000000
2567 0 1 0.000000 28.284390 0.710000 15.000000
2568 0 1 0.000000 28.284390 2.130000 15.000000
2569 0 1 0.000000 29.514146 2.840000 15.000000
2570 0 1 0.000000 29.514146 4.260000 15.000000
2571 0 1 0.000000 30.743902 4.970000 15.000000
2572 0 1 0.000000 30.743902 6.390000 15.000000
2573 0 1 0.000000 31.973658 7.100000 15.000000
2574 0 1 0.000000 31.973658 8.520000 15.000000
2575 0 1 0.000000 33.203414 9.230000 15.000000
2576 0 1 0.000000 33.203414 10.650000 15.000000
2577 0 1 0.000000 34.433170 11.360000 15.000000
2578 0 1 0.000000 34.433170 12.780000 15.000000
2579 0 1 0.000000 35.662926 13.490000 15.000000
2580 0 1 0.000000 35.662926 14.910000 15.000000
2581 0 1 0.000000 36.892682 15.620000 15.000000
2582 0 1 0.000000 36.892682 17.040000 15.000000
2583 0 1 0.000000 38.122438 17.750000 15.000000
2584 0 1 0.000000 38.122438 19.170000 15.000000
2585 0 1 0.000000 39.352194 19.880000 15.000000
2586 0 1 0.000000 39.352194 21.300000 15.000000
2587 0 1 0.000000 40.581950 22.010000 15.000000
2588 0 1 0.000000 40.581950 23.430000 15.000000
2589 0 1 0.000000 41.811706 24.140000 15.000000
2590 0 1 0.000000 41.811706 25.560000 15.000000
2591 0 1 0.000000 43.041463 26.270000 15.000000
2592 0 1 0.000000 43.041463 27.690000 15.000000
2593 0 1 0.000000 44.271219 28.400000 15.000000
2594 0 1 0.000000 44.271219 29.820000 15.000000
2595 0 1 0.000000 45.500975 30.530000 15.000000
2596 0 1 0.000000 45.500975 31.950000 15.000000
2597 0 1 0.000000 46.730731 32.660000 15.000000
2598 0 1 0.000000 46.730731 34.080000 15.000000
2599 0 1 0.000000 47.960487 34.790000 15.000000
2600 0 1 0.000000 47.960487 36.210000 15.000000
2601 0 1 0.000000 49.190243 36.920000 15.000000
2602 0 1 0.000000 49.190243 38.340000 15.000000
2603 0 1 0.000000 50.419999 39.050000 15.000000
2604 0 1 0.000000 29.514146 0.000000 15.000000
2605 0 1 0.000000 30.743902 0.710000 15.000000
2606 0 1 0.000000 30.743902 2.130000 15.000000
2607 0 1 0.000000 31.973658 2.840000 15.000000
2608 0 1 0.000000 31.973658 4.260000 15.000000
2609 0 1 0.000000 33.203414 4.970000 15.000000
2610 0 1 0.000000 33.203414 6.390000 15.000000
2611 0 1 0.000000 34.433170 7.100000 15.000000
2612 0 1 0.000000 34.433170 8.520000 15.000000
2613 0 1 0.000000 35.662926 9.230000 15.000000
2614 0 1 0.000000 35.662926 10.650000 15.000000
2615 0 1 0.000000 36.892682 11.360000 15.000000
2616 0 1 0.000000 36.892682 12.780000 15.000000
2617 0 1 0.000000 38.122438 13.490000 15.000000
2618 0 1 0.000000 38.122438 14.910000 15.000000
2619 0 1 0.000000 39.352194 15.620000 15.000000
2620 0 1 0.000000 39.352194 17.040000 15.000000
2621 0 1 0.000000 40.581950 17.750000 15.000000
2622 0 1 0.000000 40.581950 19.170000 15.000000
2623 0 1 0.000000 41.811706 19.880000 15.000000
2624 0 1 0.000000 41.811706 21.300000 15.000000
2625 0 1 0.000000 43.041463 22.010000 15.000000
2626 0 1 0.000000 43.041463 23.430000 15.000000
2627 0 1 0.000000 44.271219 24.140000 15.000000
2628 0 1 0.000000 44.271219 25.560000 15.000000
2629 0 1 0.000000 45.500975 26.270000 15.000000
2630 0 1 0.000000 45.500975 27.690000 15.000000
2631 0 1 0.000000 46.730731 28.400000 15.000000
2632 0 1 0.000000 46.730731 29.820000 15.000000
2633 0 1 0.000000 47.960487 30.530000 15.000000
2634 0 1 0.000000 47.960487 31.950000 15.000000
2635 0 1 0.000000 49.190243 32.660000 15.000000
2636 0 1 0.000000 49.190243 34.080000 15.000000
2637 0 1 0.000000 50.419999 34.790000 15.000000
2638 0 1 0.000000 50.419999 36.210000 15.000000
2639 0 1 0.000000 51.649755 36.920000 15.000000
2640 0 1 0.000000 51.649755 38.340000 15.000000
2641 0 1 0.000000 52.879511 39.050000 15.000000
2642 0 1 0.000000 31.973658 0.000000 15.000000
2643 0 1 0.000000 33.203414 0.710000 15.000000
2644 0 1 0.000000 33.203414 2.130000 15.000000
2645 0 1 0.000000 34.433170 2.840000 15.000000
2646 0 1 0.000000 34.433170 4.260000 15.000000
2647 0 1 0.000000 35.662926 4.970000 15.000000
2648 0 1 0.000000 35.662926 6.390000 15.000000
2649 0 1 0.000000 36.892682 7.100000 15.000000
2650 0 1 0.000000 36.892682 8.520000 15.000000
2651 0 1 0.000000 38.122438 9.230000 15.000000
2652 0 1 0.000000 38.122438 10.650000 15.000000
2653 0 1 0.000000 39.352194 11.360000 15.000000
2654 0 1 0.000000 39.352194 12.780000 15.000000
2655 0 1 0.000000 40.581950 13.490000 15.000000
2656 0 1 0.000000 40.581950 14.910000 15.000000
2657 0 1 0.000000 41.811706 15.620000 15.000000
2658 0 1 0.000000 41.811706 17.040000 15.000000
2659 0 1 0.000000 43.041463 17.750000 15.000000
2660 0 1 0.000000 43.041463 19.170000 15.000000
2661 0 1 0.000000 44.271219 19.880000 15.000000
2662 0 1 0.000000 44.271219 21.300000 15.000000
2663 0 1 0.000000 45.500975 22.010000 15.000000
2664 0 1 0.000000 45.500975 23.430000 15.000000
2665 0 1 0.000000 46.730731 24.140000 15.000000
2666 0 1 0.000000 46.730731 25.560000 15.000000
2667 0 1 0.000000 47.960487 26.270000 15.000000
2668 0 1 0.000000 47.960487 27.690000 15.000000
2669 0 1 0.000000 49.190243 28.400000 15.000000
2670 0 1 0.000000 49.190243 29.820000 15.000000
2671 0 1 0.000000 50.419999 30.530000 15.000000
2672 0 1 0.000000 50.419999 31.950000 15.000000
2673 0 1 0.000000 51.649755 32.660000 15.000000
2674 0 1 0.000000 51.649755 34.080000 15.000000
2675 0 1 0.000000 52.879511 34.790000 15.000000
2676 0 1 0.000000 52.879511 36.210000 15.000000
2677 0 1 0.000000 54.109267 36.920000 15.000000
2678 0 1 0.000000 54.109267 38.340000 15.000000
2679 0 1 0.000000 55.339023 39.050000 15.000000
2680 0 1 0.000000 34.433170 0.000000 15.000000
2681 0 1 0.000000 35.662926 0.710000 15.000000
2682 0 1 0.000000 35.662926 2.130000 15.000000
2683 0 1 0.000000 36.892682 2.840000 15.000000
2684 0 1 0.000000 36.892682 4.260000 15.000000
2685 0 1 0.000000 38.122438 4.970000 15.000000
2686 0 1 0.000000 38.122438 6.390000 15.000000
2687 0 1 0.000000 39.352194 7.100000 15.000000
2688 0 1 0.000000 39.352194 8.520000 15.000000
2689 0 1 0.000000 40.581950 9.230000 15.000000
2690 0 1 0.000000 40.581950 10.650000 15.000000
2691 0 1 0.000000 41.811706 11.360000 15.000000
2692 0 1 0.000000 41.811706 12.780000 15.000000
2693 0 1 0.000000 43.041463 13.490000 15.000000
2694 0 1 0.000000 43.041463 14.910000 15.000000
2695 0 1 0.000000 44.271219 15.620000 15.000000
2696 0 1 0.000000 44.271219 17.040000 15.000000
2697 0 1 0.000000 45.500975 17.750000 15.000000
2698 0 1 0.000000 45.500975 19.170000 15.000000
2699 0 1 0.000000 46.730731 19.880000 15.000000
2700 0 1 0.000000 46.730731 21.300000 15.000000
2701 0 1 0.000000 47.960487 22.010000 15.000000
2702 0 1 0.000000 47.960487 23.430000 15.000000
2703 0 1 0.000000 49.190243 24.140000 15.000000
2704 0 1 0.000000 49.190243 25.560000 15.000000
2705 0 1 0.000000 50.419999 26.270000 15.000000
2706 0 1 0.000000 50.419999 27.690000 15.000000
2707 0 1 0.000000 51.649755 28.400000 15.000000
2708 0 1 0.000000 51.649755 29.820000 15.000000
2709 0 1 0.000000 52.879511 30.530000 15.000000
2710 0 1 0.000000 52.879511 31.950000 15.000000
2711 0 1 0.000000 54.109267 32.660000 15.000000
2712 0 1 0.000000 54.109267 34.080000 15.000000
2713 0 1 0.000000 55.339023 34.790000 15.000000
2714 0 1 0.000000 55.339023 36.210000 15.000000
2715 0 1 0.000000 56.568779 36.920000 15.000000
2716 0 1 0.000000 56.568779 38.340000 15.000000
2717 0 1 0.000000 57.798535 39.050000 15.000000
2718 0 1 0.000000 36.892682 0.000000 15.000000
2719 0 1 0.000000 38.122438 0.710000 15.000000
2720 0 1 0.000000 38.122438 2.130000 15.000000
2721 0 1 0.000000 39.352194 2.840000 15.000000
2722 0 1 0.000000 39.352194 4.260000 15.000000
2723 0 1 0.000000 40.581950 4.970000 15.000000
2724 0 1 0.000000 40.581950 6.390000 15.000000
2725 0 1 0.000000 41.811706 7.100000 15.000000
2726 0 1 0.000000 41.811706 8.520000 15.000000
2727 0 1 0.000000 43.041463 9.230000 15.000000
2728 0 1 0.000000 43.041463 10.650000 15.000000
2729 0 1 0.000000 44.271219 11.360000 15.000000
2730 0 1 0.000000 44.271219 12.780000 15.000000
2731 0 1 0.000000 45.500975 13.490000 15.000000
2732 0 1 0.000000 45.500975 14.910000 15.000000
2733 0 1 0.000000 46.730731 15.620000 15.000000
2734 0 1 0.000000 46.730731 17.040000 15.000000
2735 0 1 0.000000 47.960487 17.750000 15.000000
2736 0 1 0.000000 47.960487 19.170000 15.000000
2737 0 1 0.000000 49.190243 19.880000 15.000000
2738 0 1 0.000000 49.190243 21.300000 15.000000
2739 0 1 0.000000 50.419999 22.010000 15.000000
2740 0 1 0.000000 50.419999 23.430000 15.000000
2741 0 1 0.000000 51.649755 24.140000 15.000000
2742 0 1 0.000000 51.649755 25.560000 15.000000
2743 0 1 0.000000 52.879511 26.270000 15.000000
2744 0 1 0.000000 52.879511 27.690000 15.000000
2745 0 1 0.000000 54.109267 28.400000 15.000000
2746 0 1 0.000000 54.109267 29.820000 15.000000
2747 0 1 0.000000 55.339023 30.530000 15.000000
2748 0 1 0.000000 55.339023 31.950000 15.000000
2749 0 1 0.000000 56.568779 32.660000 15.000000
2750 0 1 0.000000 56.568779 34.080000 15.000000
2751 0 1 0.000000 57.798535 34.790000 15.000000
2752 0 1 0.000000 57.798535 36.210000 15.000000
2753 0 1 0.000000 59.028292 36.920000 15.000000
2754 0 1 0.000000 59.028292 38.340000 15.000000
2755 0 1 0.000000 60.258048 39.050000 15.000000
2756 0 1 0.000000 39.352194 0.000000 15.000000
2757 0 1 0.000000 40.581950 0.710000 15.000000
2758 0 1 0.000000 40.581950 2.130000 15.000000
2759 0 1 0.000000 41.811706 2.840000 15.000000
2760 0 1 0.000000 41.811706 4.260000 15.000000
2761 0 1 0.000000 43.041463 4.970000 15.000000
2762 0 1 0.000000 43.041463 6.390000 15.000000
2763 0 1 0.000000 44.271219 7.100000 15.000000
2764 0 1 0.000000 44.271219 8.520000 15.000000
2765 0 1 0.000000 45.500975 9.230000 15.000000
2766 0 1 0.000000 45.500975 10.650000 15.000000
2767 0 1 0.000000 46.730731 11.360000 15.000000
2768 0 1 0.000000 46.730731 12.780000 15.000000
2769 0 1 0.000000 47.960487 13.490000 15.000000
2770 0 1 0.000000 47.960487 14.910000 15.000000
2771 0 1 0.000000 49.190243 15.620000 15.000000
2772 0 1 0.000000 49.190243 17.040000 15.000000
2773 0 1 0.000000 50.419999 17.750000 15.000000
2774 0 1 0.000000 50.419999 19.170000 15.000000
2775 0 1 0.000000 51.649755 19.880000 15.000000
2776 0 1 0.000000 51.649755 21.300000 15.000000
2777 0 1 0.000000 52.879511 22.010000 15.000000
2778 0 1 0.000000 52.879511 23.430000 15.000000
2779 0 1 0.000000 54.109267 24.140000 15.000000
2780 0 1 0.000000 54.109267 25.560000 15.000000
2781 0 1 0.000000 55.339023 26.270000 15.000000
2782 0 1 0.000000 55.339023 27.690000 15.000000
2783 0 1 0.000000 56.568779 28.400000 15.000000
2784 0 1 0.000000 56.568779 29.820000 15.000000
2785 0 1 0.000000 57.798535 30.530000 15.000000
2786 0 1 0.000000 57.798535 31.950000 15.000000
2787 0 1 0.000000 59.028292 32.660000 15.000000
2788 0 1 0.000000 59.028292 34.080000 15.000000
2789 0 1 0.000000 60.258048 34.790000 15.000000
2790 0 1 0.000000 60.258048 36.210000 15.000000
2791 0 1 0.000000 61.487804 36.920000 15.000000
2792 0 1 0.000000 61.487804 38.340000 15.000000
2793 0 1 0.000000 62.717560 39.050000 15.000000
2794 0 1 0.000000 41.811706 0.000000 15.000000
2795 0 1 0.000000 43.041463 0.710000 15.000000
2796 0 1 0.000000 43.041463 2.130000 15.000000
2797 0 1 0.000000 44.271219 2.840000 15.000000
2798 0 1 0.000000 44.271219 4.260000 15.000000
2799 0 1 0.000000 45.500975 4.970000 15.000000
2800 0 1 0.000000 45.500975 6.390000 15.000000
2801 0 1 0.000000 46.730731 7.100000 15.000000
2802 0 1 0.000000 46.730731 8.520000 15.000000
2803 0 1 0.000000 47.960487 9.230000 15.000000
2804 0 1 0.000000 47.960487 10.650000 15.000000
2805 0 1 0.000000 49.190243 11.360000 15.000000
2806 0 1 0.000000 49.190243 12.780000 15.000000
2807 0 1 0.000000 50.419999 13.490000 15.000000
2808 0 1 0.000000 50.419999 14.910000 15.000000
2809 0 1 0.000000 51.649755 15.620000 15.000000
2810 0 1 0.000000 51.649755 17.040000 15.000000
2811 0 1 0.000000 52.879511 17.750000 15.000000
2812 0 1 0.000000 52.879511 19.170000 15.000000
2813 0 1 0.000000 54.109267 19.880000 15.000000
2814 0 1 0.000000 54.109267 21.300000 15.000000
2815 0 1 0.000000 55.339023 22.010000 15.000000
2816 0 1 0.000000 55.339023 23.430000 15.000000
2817 0 1 0.000000 56.568779 24.140000 15.000000
2818 0 1 0.000000 56.568779 25.560000 15.000000
2819 0 1 0.000000 57.798535 26.270000 15.000000
2820 0 1 0.000000 57.798535 27.690000 15.000000
2821 0 1 0.000000 59.028292 28.400000 15.000000
2822 0 1 0.000000 59.028292 29.820000 15.000000
2823 0 1 0.000000 60.258048 30.530000 15.000000
2824 0 1 0.000000 60.258048 31.950000 15.000000
2825 0 1 0.000000 61.487804 32.660000 15.000000
2826 0 1 0.000000 61.487804 34.080000 15.000000
2827 0 1 0.000000 62.717560 34.790000 15.000000
2828 0 1 0.000000 62.717560 36.210000 15.000000
2829 0 1 0.000000 63.947316 36.920000 15.000000
2830 0 1 0.000000 63.947316 38.340000 15.000000
2831 0 1 0.000000 65.177072 39.050000 15.000000
2832 0 1 0.000000 44.271219 0.000000 15.000000
2833 0 1 0.000000 45.500975 0.710000 15.000000
2834 0 1 0.000000 45.500975 2.130000 15.000000
2835 0 1 0.000000 46.730731 2.840000 15.000000
2836 0 1 0.000000 46.730731 4.260000 15.000000
2837 0 1 0.000000 47.960487 4.970000 15.000000
2838 0 1 0.000000 47.960487 6.390000 15.000000
2839 0 1 0.000000 49.190243 7.100000 15.000000
2840 0 1 0.000000 49.190243 8.520000 15.000000
2841 0 1 0.000000 50.419999 9.230000 15.000000
2842 0 1 0.000000 50.419999 10.650000 15.000000
2843 0 1 0.000000 51.649755 11.360000 15.000000
2844 0 1 0.000000 51.649755 12.780000 15.000000
2845 0 1 0.000000 52.879511 13.490000 15.000000
2846 0 1 0.000000 52.879511 14.910000 15.000000
2847 0 1 0.000000 54.109267 15.620000 15.000000
2848 0 1 0.000000 54.109267 17.040000 15.000000
2849 0 1 0.000000 55.339023 17.750000 15.000000
2850 0 1 0.000000 55.339023 19.170000 15.000000
2851 0 1 0.000000 56.568779 19.880000 15.000000
2852 0 1 0.000000 56.568779 21.300000 15.000000
2853 0 1 0.000000 57.798535 22.010000 15.000000
2854 0 1 0.000000 57.798535 23.430000 15.000000
2855 0 1 0.000000 59.028292 24.140000 15.000000
2856 0 1 0.000000 59.028292 25.560000 15.000000
2857 0 1 0.000000 60.258048 26.270000 15.000000
2858 0 1 0.000000 60.258048 27.690000 15.000000
2859 0 1 0.000000 61.487804 28.400000 15.000000
2860 0 1 0.000000 61.487804 29.820000 15.000000
2861 0 1 0.000000 62.717560 30.530000 15.000000
2862 0 1 0.000000 62.717560 31.950000 15.000000
2863 0 1 0.000000 63.947316 32.660000 15.000000
2864 0 1 0.000000 63.947316 34.080000 15.000000
2865 0 1 0.000000 65.177072 34.790000 15.000000
2866 0 1 0.000000 65.177072 36.210000 15.000000
2867 0 1 0.000000 66.406828 36.920000 15.000000
2868 0 1 0.000000 66.406828 38.340000 15.000000
2869 0 1 0.000000 67.636584 39.050000 15.000000
2870 0 1 0.000000 46.730731 0.000000 15.000000
2871 0 1 0.000000 47.960487 0.710000 15.000000
2872 0 1 0.000000 47.960487 2.130000 15.000000
2873 0 1 0.000000 49.190243 2.840000 15.000000
2874 0 1 0.000000 49.190243 4.260000 15.000000
2875 0 1 0.000000 50.419999 4.970000 15.000000
2876 0 1 0.000000 50.419999 6.390000 15.000000
2877 0 1 0.000000 51.649755 7.100000 15.000000
2878 0 1 0.000000 51.649755 8.520000 15.000000
2879 0 1 0.000000 52.879511 9.230000 15.000000
2880 0 1 0.000000 52.879511 10.650000 15.000000
2881 0 1 0.000000 54.109267 11.360000 15.000000
2882 0 1 0.000000 54.109267 12.780000 15.000000
2883 0 1 0.000000 55.339023 13.490000 15.000000
2884 0 1 0.000000 55.339023 14.910000 15.000000
2885 0 1 0.000000 56.568779 15.620000 15.000000
2886 0 1 0.000000 56.568779 17.040000 15.000000
2887 0 1 0.000000 57.798535 17.750000 15.000000
2888 0 1 0.000000 57.798535 19.170000 15.000000
2889 0 1 0.000000 59.028292 19.880000 15.000000
2890 0 1 0.000000 59.028292 21.300000 15.000000
2891 0 1 0.000000 60.258048 22.010000 15.000000
2892 0 1 0.000000 60.258048 23.430000 15.000000
2893 0 1 0.000000 61.487804 24.140000 15.000000
2894 0 1 0.000000 61.487804 25.560000 15.000000
2895 0 1 0.000000 62.717560 26.270000 15.000000
2896 0 1 0.000000 62.717560 27.690000 15.000000
2897 0 1 0.000000 63.947316 28.400000 15.000000
2898 0 1 0.000000 63.947316 29.820000 15.000000
2899 0 1 0.000000 65.177072 30.530000 15.000000
2900 0 1 0.000000 65.177072 31.950000 15.000000
2901 0 1 0.000000 66.406828 32.660000 15.000000
2902 0 1 0.000000 66.406828 34.080000 15.000000
2903 0 1 0.000000 67.636584 34.790000 15.000000
2904 0 1 0.000000 67.636584 36.210000 15.000000
2905 0 1 0.000000 68.866340 36.920000 15.000000
2906 0 1 0.000000 68.866340 38.340000 15.000000
2907 0 1 0.000000 70.096096 39.050000 15.000000
2908 0 1 0.000000 49.190243 0.000000 15.000000
2909 0 1 0.000000 50.419999 0.710000 15.000000
2910 0 1 0.000000 50.419999 2.130000 15.000000
2911 0 1 0.000000 51.649755 2.840000 15.000000
2912 0 1 0.000000 51.649755 4.260000 15.000000
2913 0 1 0.000000 52.879511 4.970000 15.000000
2914 0 1 0.000000 52.879511 6.390000 15.000000
2915 0 1 0.000000 54.109267 7.100000 15.000000
2916 0 1 0.000000 54.109267 8.520000 15.000000
2917 0 1 0.000000 55.339023 9.230000 15.000000
2918 0 1 0.000000 55.339023 10.650000 15.000000
2919 0 1 0.000000 56.568779 11.360000 15.000000
2920 0 1 0.000000 56.568779 12.780000 15.000000
2921 0 1 0.000000 57.798535 13.490000 15.000000
2922 0 1 0.000000 57.798535 14.910000 15.000000
2923 0 1 0.000000 59.028292 15.620000 15.000000
2924 0 1 0.000000 59.028292 17.040000 15.000000
2925 0 1 0.000000 60.258048 17.750000 15.000000
2926 0 1 0.000000 60.258048 19.170000 15.000000
2927 0 1 0.000000 61.487804 19.880000 15.000000
2928 0 1 0.000000 61.487804 21.300000 15.000000
2929 0 1 0.000000 62.717560 22.010000 15.000000
2930 0 1 0.000000 62.717560 23.430000 15.000000
2931 0 1 0.000000 63.947316 24.140000 15.000000
2932 0 1 0.000000 63.947316 25.560000 15.000000
2933 0 1 0.000000 65.177072 26.270000 15.000000
2934 0 1 0.000000 65.177072 27.690000 15.000000
2935 0 1 0.000000 66.406828 28.400000 15.000000
2936 0 1 0.000000 66.406828 29.820000 15.000000
2937 0 1 0.000000 67.636584 30.530000 15.000000
2938 0 1 0.000000 67.636584 31.950000 15.000000
2939 0 1 0.000000 68.866340 32.660000 15.000000
2940 0 1 0.000000 68.866340 34.080000 15.000000
2941 0 1 0.000000 70.096096 34.790000 15.000000
2942 0 1 0.000000 70.096096 36.210000 15.000000
2943 0 1 0.000000 71.325852 36.920000 15.000000
2944 0 1 0.000000 71.325852 38.340000 15.000000
2945 0 1 0.000000 72.555608 39.050000 15.000000
2946 0 1 0.000000 51.649755 0.000000 15.000000
2947 0 1 0.000000 52.879511 0.710000 15.000000
2948 0 1 0.000000 52.879511 2.130000 15.000000
2949 0 1 0.000000 54.109267 2.840000 15.000000
2950 0 1 0.000000 54.109267 4.260000 15.000000
2951 0 1 0.000000 55.339023 4.970000 15.000000
2952 0 1 0.000000 55.339023 6.390000 15.000000
2953 0 1 0.000000 56.568779 7.100000 15.000000
2954 0 1 0.000000 56.568779 8.520000 15.000000
2955 0 1 0.000000 57.798535 9.230000 15.000000
2956 0 1 0.000000 57.798535 10.650000 15.000000
2957 0 1 0.000000 59.028292 11.360000 15.000000
2958 0 1 0.000000 59.028292 12.780000 15.000000
2959 0 1 0.000000 60.258048 13.490000 15.000000
2960 0 1 0.000000 60.258048 14.910000 15.000000
2961 0 1 0.000000 61.487804 15.620000 15.000000
2962 0 1 0.000000 61.487804 17.040000 15.000000
2963 0 1 0.000000 62.717560 17.750000 15.000000
2964 0 1 0.000000 62.717560 19.170000 15.000000
2965 0 1 0.000000 63.947316 19.880000 15.000000
2966 0 1 0.000000 63.947316 21.300000 15.000000
2967 0 1 0.000000 65.177072 22.010000 15.000000
2968 0 1 0.000000 65.177072 23.430000 15.000000
2969 0 1 0.000000 66.406828 24.140000 15.000000
2970 0 1 0.000000 66.406828 25.560000 15.000000
2971 0 1 0.000000 67.636584 26.270000 15.000000
2972 0 1 0.000000 67.636584 27.690000 15.000000
2973 0 1 0.000000 68.866340 28.400000 15.000000
2974 0 1 0.000000 68.866340 29.820000 15.000000
2975 0 1 0.000000 70.096096 30.530000 15.000000
2976 0 1 0.000000 70.096096 31.950000 15.000000
2977 0 1 0.000000 71.325852 32.660000 15.000000
2978 0 1 0.000000 71.325852 34.080000 15.000000
2979 0 1 0.000000 72.555608 34.790000 15.000000
2980 0 1 0.000000 72.555608 36.210000 15.000000
2981 0 1 0.000000 73.785364 36.920000 15.000000
2982 0 1 0.000000 73.785364 38.340000 15.000000
2983 0 1 0.000000 75.015120 39.050000 15.000000
2984 0 1 0.000000 54.109267 0.000000 15.000000
2985 0 1 0.000000 55.339023 0.710000 15.000000
2986 0 1 0.000000 55.339023 2.130000 15.000000
2987 0 1 0.000000 56.568779 2.840000 15.000000
2988 0 1 0.000000 56.568779 4.260000 15.000000
2989 0 1 0.000000 57.798535 4.970000 15.000000
2990 0 1 0.000000 57.798535 6.390000 15.000000
2991 0 1 0.000000 59.028292 7.100000 15.000000
2992 0 1 0.000000 59.028292 8.520000 15.000000
2993 0 1 0.000000 60.258048 9.230000 15.000000
2994 0 1 0.000000 60.258048 10.650000 15.000000
2995 0 1 0.000000 61.487804 11.360000 15.000000
2996 0 1 0.000000 61.487804 12.780000 15.000000
2997 0 1 0.000000 62.717560 13.490000 15.000000
2998 0 1 0.000000 62.717560 14.910000 15.000000
2999 0 1 0.000000 63.947316 15.620000 15.000000
3000 0 1 0.000000 63.947316 17.040000 15.000000
3001 0 1 0.000000 65.177072 17.750000 15.000000
3002 0 1 0.000000 65.177072 19.170000 15.000000
3003 0 1 0.000000 66.406828 19.880000 15.000000
3004 0 1 0.000000 66.406828 21.300000 15.000000
3005 0 1 0.000000 67.636584 22.010000 15.000000
3006 0 1 0.000000 67.636584 23.430000 15.000000
3007 0 1 0.000000 68.866340 24.140000 15.000000
3008 0 1 0.000000 68.866340 25.560000 15.000000
3009 0 1 0.000000 70.096096 26.270000 15.000000
3010 0 1 0.000000 70.096096 27.690000 15.000000
3011 0 1 0.000000 71.325852 28.400000 15.000000
3012 0 1 0.000000 71.325852 29.820000 15.000000
3013 0 1 0.000000 72.555608 30.530000 15.000000
3014 0 1 0.000000 72.555608 31.950000 15.000000
3015 0 1 0.000000 73.785364 32.660000 15.000000
3016 0 1 0.000000 73.785364 34.080000 15.000000
3017 0 1 0.000000 75.015120 34.790000 15.000000
3018 0 1 0.000000 75.015120 36.210000 15.000000
3019 0 1 0.000000 76.244877 36.920000 15.000000
3020 0 1 0.000000 76.244877 38.340000 15.000000
3021 0 1 0.000000 77.474633 39.050000 15.000000
3022 0 1 0.000000 56.568779 0.000000 15.000000
3023 0 1 0.000000 57.798535 0.710000 15.000000
3024 0 1 0.000000 57.798535 2.130000 15.000000
3025 0 1 0.000000 59.028292 2.840000 15.000000
3026 0 1 0.000000 59.028292 4.260000 15.000000
3027 0 1 0.000000 60.258048 4.970000 15.000000
3028 0 1 0.000000 60.258048 6.390000 15.000000
3029 0 1 0.000000 61.487804 7.100000 15.000000
3030 0 1 0.000000 61.487804 8.520000 15.000000
3031 0 1 0.000000 62.717560 9.230000 15.000000
3032 0 1 0.000000 62.717560 10.650000 15.000000
3033 0 1 0.000000 63.947316 11.360000 15.000000
3034 0 1 0.000000 63.947316 12.780000 15.000000
3035 0 1 0.000000 65.177072 13.490000 15.000000
3036 0 1 0.000000 65.177072 14.910000 15.000000
3037 0 1 0.000000 66.406828 15.620000 15.000000
3038 0 1 0.000000 66.406828 17.040000 15.000000
3039 0 1 0.000000 67.636584 17.750000 15.000000
3040 0 1 0.000000 67.636584 19.170000 15.000000
3041 0 1 0.000000 68.866340 19.880000 15.000000
3042 0 1 0.000000 68.866340 21.300000 15.000000
3043 0 1 0.000000 70.096096 22.010000 15.000000
3044 0 1 0.000000 70.096096 23.430000 15.000000
3045 0 1 0.000000 71.325852 24.140000 15.000000
3046 0 1 0.000000 71.325852 25.560000 15.000000
3047 0 1 0.000000 72.555608 26.270000 15.000000
3048 0 1 0.000000 72.555608 27.690000 15.000000
3049 0 1 0.000000 73.785364 28.400000 15.000000
3050 0 1 0.000000 73.785364 29.820000 15.000000
3051 0 1 0.000000 75.015120 30.530000 15.000000
3052 0 1 0.000000 75.015120 31.950000 15.000000
3053 0 1 0.000000 76.244877 32.660000 15.000000
3054 0 1 0.000000 76.244877 34.080000 15.000000
3055 0 1 0.000000 77.474633 34.790000 15.000000
3056 0 1 0.000000 77.474633 36.210000 15.000000
3057 0 1 0.000000 78.704389 36.920000 15.000000
3058 0 1 0.000000 78.704389 38.340000 15.000000
3059 0 1 0.000000 79.934145 39.050000 15.000000
3060 0 1 0.000000 59.028292 0.000000 15.000000
3061 0 1 0.000000 60.258048 0.710000 15.000000
3062 0 1 0.000000 60.258048 2.130000 15.000000
3063 0 1 0.000000 61.487804 2.840000 15.000000
3064 0 1 0.000000 61.487804 4.260000 15.000000
3065 0 1 0.000000 62.717560 4.970000 15.000000
3066 0 1 0.000000 62.717560 6.390000 15.000000
3067 0 1 0.000000 63.947316 7.100000 15.000000
3068 0 1 0.000000 63.947316 8.520000 15.000000
3069 0 1 0.000000 65.177072 9.230000 15.000000
3070 0 1 0.000000 65.177072 10.650000 15.000000
3071 0 1 0.000000 66.406828 11.360000 15.000000
3072 0 1 0.000000 66.406828 12.780000 15.000000
3073 0 1 0.000000 67.636584 13.490000 15.000000
3074 0 1 0.000000 67.636584 14.910000 15.000000
3075 0 1 0.000000 68.866340 15.620000 15.000000
3076 0 1 0.000000 68.866340 17.040000 15.000000
3077 0 1 0.000000 70.096096 17.750000 15.000000
3078 0 1 0.000000 70.096096 19.170000 15.000000
3079 0 1 0.000000 71.325852 19.880000 15.000000
3080 0 1 0.000000 71.325852 21.300000 15.000000
3081 0 1 0.000000 72.555608 22.010000 15.000000
3082 0 1 0.000000 72.555608 23.430000 15.000000
3083 0 1 0.000000 73.785364 24.140000 15.000000
3084 0 1 0.000000 73.785364 25.560000 15.000000
3085 0 1 0.000000 75.015120 26.270000 15.000000
3086 0 1 0.000000 75.015120 27.690000 15.000000
3087 0 1 0.000000 76.244877 28.400000 15.000000
3088 0 1 0.000000 76.244877 29.820000 15.000000
3089 0 1 0.000000 77.474633 30.530000 15.000000
3090 0 1 0.000000 77.474633 31.950000 15.000000
3091 0 1 0.000000 78.704389 32.660000 15.000000
3092 0 1 0.000000 78.704389 34.080000 15.000000
3093 0 1 0.000000 79.934145 34.790000 15.000000
3094 0 1 0.000000 79.934145 36.210000 15.000000
3095 0 1 0.000000 81.163901 36.920000 15.000000
3096 0 1 0.000000 81.163901 38.340000 15.000000
3097 0 1 0.000000 82.393657 39.050000 15.000000
3098 0 1 0.000000 61.487804 0.000000 15.000000
3099 0 1 0.000000 62.717560 0.710000 15.000000
3100 0 1 0.000000 62.717560 2.130000 15.000000
3101 0 1 0.000000 63.947316 2.840000 15.000000
3102 0 1 0.000000 63.947316 4.260000 15.000000
3103 0 1 0.000000 65.177072 4.970000 15.000000
3104 0 1 0.000000 65.177072 6.390000 15.000000
3105 0 1 0.000000 66.406828 7.100000 15.000000
3106 0 1 0.000000 66.406828 8.520000 15.000000
3107 0 1 0.000000 67.636584 9.230000 15.000000
3108 0 1 0.000000 67.636584 10.650000 15.000000
3109 0 1 0.000000 68.866340 11.360000 15.000000
3110 0 1 0.000000 68.866340 12.780000 15.000000
3111 0 1 0.000000 70.096096 13.490000 15.000000
3112 0 1 0.000000 70.096096 14.910000 15.000000
3113 0 1 0.000000 71.325852 15.620000 15.000000
3114 0 1 0.000000 71.325852 17.040000 15.000000
3115 0 1 0.000000 72.555608 17.750000 15.000000
3116 0 1 0.000000 72.555608 19.170000 15.000000
3117 0 1 0.000000 73.785364 19.880000 15.000000
3118 0 1 0.000000 73.785364 21.300000 15.000000
3119 0 1 0.000000 75.015120 22.010000 15.000000
3120 0 1 0.000000 75.015120 23.430000 15.000000
3121 0 1 0.000000 76.244877 24.140000 15.000000
3122 0 1 0.000000 76.244877 25.560000 15.000000
3123 0 1 0.000000 77.474633 26.270000 15.000000
3124 0 1 0.000000 77.474633 27.690000 15.000000
3125 0 1 0.000000 78.704389 28.400000 15.000000
3126 0 1 0.000000 78.704389 29.820000 15.000000
3127 0 1 0.000000 79.934145 30.530000 15.000000
3128 0 1 0.000000 79.934145 31.950000 15.000000
3129 0 1 0.000000 81.163901 32.660000 15.000000
3130 0 1 0.000000 81.163901 34.080000 15.000000
3131 0 1 0.000000 82.393657 34.790000 15.000000
3132 0 1 0.000000 82.393657 36.210000 15.000000
3133 0 1 0.000000 83.623413 36.920000 15.000000
3134 0 1 0.000000 83.623413 38.340000 15.000000
3135 0 1 0.000000 84.853169 39.050000 15.000000
3136 0 1 0.000000 63.947316 0.000000 15.000000
3137 0 1 0.000000 65.177072 0.710000 15.000000
3138 0 1 0.000000 65.177072 2.130000 15.000000
3139 0 1 0.000000 66.406828 2.840000 15.000000
3140 0 1 0.000000 66.406828 4.260000 15.000000
3141 0 1 0.000000 67.636584 4.970000 15.000000
3142 0 1 0.000000 67.636584 6.390000 15.000000
3143 0 1 0.000000 68.866340 7.100000 15.000000
3144 0 1 0.000000 68.866340 8.520000 15.000000
3145 0 1 0.000000 70.096096 9.230000 15.000000
3146 0 1 0.000000 70.096096 10.650000 15.000000
3147 0 1 0.000000 71.325852 11.360000 15.000000
3148 0 1 0.000000 71.325852 12.780000 15.000000
3149 0 1 0.000000 72.555608 13.490000 15.000000
3150 0 1 0.000000 72.555608 14.910000 15.000000
3151 0 1 0.000000 73.785364 15.620000 15.000000
3152 0 1 0.000000 73.785364 17.040000 15.000000
3153 0 1 0.000000 75.015120 17.750000 15.000000
3154 0 1 0.000000 75.015120 19.170000 15.000000
3155 0 1 0.000000 76.244877 19.880000 15.000000
3156 0 1 0.000000 76.244877 21.300000 15.000000
3157 0 1 0.000000 77.474633 22.010000 15.000000
3158 0 1 0.000000 77.474633 23.430000 15.000000
3159 0 1 0.000000 78.704389 24.140000 15.000000
3160 0 1 0.000000 78.704389 25.560000 15.000000
3161 0 1 0.000000 79.934145 26.270000 15.000000
3162 0 1 0.000000 79.934145 27.690000 15.000000
3163 0 1 0.000000 81.163901 28.400000 15.000000
3164 0 1 0.000000 81.163901 29.820000 15.000000
3165 0 1 0.000000 82.393657 30.530000 15.000000
3166 0 1 0.000000 82.393657 31.950000 15.000000
3167 0 1 0.000000 83.623413 32.660000 15.000000
3168 0 1 0.000000 83.623413 34.080000 15.000000
3169 0 1 0.000000 84.853169 34.790000 15.000000
3170 0 1 0.000000 84.853169 36.210000 15.000000
3171 0 1 0.000000 86.082925 36.920000 15.000000
3172 0 1 0.000000 86.082925 38.340000 15.000000
3173 0 1 0.000000 87.312681 39.050000 15.000000
3174 0 1 0.000000 66.406828 0.000000 15.000000
3175 0 1 0.000000 67.636584 0.710000 15.000000
3176 0 1 0.000000 67.636584 2.130000 15.000000
3177 0 1 0.000000 68.866340 2.840000 15.000000
3178 0 1 0.000000 68.866340 4.260000 15.000000
3179 0 1 0.000000 70.096096 4.970000 15.000000
3180 0 1 0.000000 70.096096 6.390000 15.000000
3181 0 1 0.000000 71.325852 7.100000 15.000000
3182 0 1 0.000000 71.325852 8.520000 15.000000
3183 0 1 0.000000 72.555608 9.230000 15.000000
3184 0 1 0.000000 72.555608 10.650000 15.000000
3185 0 1 0.000000 73.785364 11.360000 15.000000
3186 0 1 0.000000 73.785364 12.780000 15.000000
3187 0 1 0.000000 75.015120 13.490000 15.000000
3188 0 1 0.000000 75.015120 14.910000 15.000000
3189 0 1 0.000000 76.244877 15.620000 15.000000
3190 0 1 0.000000 76.244877 17.040000 15.000000
3191 0 1 0.000000 77.474633 17.750000 15.000000
3192 0 1 0.000000 77.474633 19.170000 15.000000
3193 0 1 0.000000 78.704389 19.880000 15.000000
3194 0 1 0.000000 78.704389 21.300000 15.000000
3195 0 1 0.000000 79.934145 22.010000 15.000000
3196 0 1 0.000000 79.934145 23.430000 15.000000
3197 0 1 0.000000 81.163901 24.140000 15.000000
3198 0 1 0.000000 81.163901 25.560000 15.000000
3199 0 1 0.000000 82.393657 26.270000 15.000000
3200 0 1 0.000000 82.393657 27.690000 15.000000
3201 0 1 0.000000 83.623413 28.400000 15.000000
3202 0 1 0.000000 83.623413 29.820000 15.000000
3203 0 1 0.000000 84.853169 30.530000 15.000000
3204 0 1 0.000000 84.853169 31.950000 15.000000
3205 0 1 0.000000 86.082925 32.660000 15.000000
3206 0 1 0.000000 86.082925 34.080000 15.000000
3207 0 1 0.000000 87.312681 34.790000 15.000000
3208 0 1 0.000000 87.312681 36.210000 15.000000
3209 0 1 0.000000 88.542437 36.920000 15.000000
3210 0 1 0.000000 88.542437 38.340000 15.000000
3211 0 1 0.000000 89.772193 39.050000 15.000000
3212 0 1 0.000000 68.866340 0.000000 15.000000
3213 0 1 0.000000 70.096096 0.710000 15.000000
3214 0 1 0.000000 70.096096 2.130000 15.000000
3215 0 1 0.000000 71.325852 2.840000 15.000000
3216 0 1 0.000000 71.325852 4.260000 15.000000
3217 0 1 0.000000 72.555608 4.970000 15.000000
3218 0 1 0.000000 72.555608 6.390000 15.000000
3219 0 1 0.000000 73.785364 7.100000 15.000000
3220 0 1 0.000000 73.785364 8.520000 15.000000
3221 0 1 0.000000 75.015120 9.230000 15.000000
3222 0 1 0.000000 75.015120 10.650000 15.000000
3223 0 1 0.000000 76.244877 11.360000 15.000000
3224 0 1 0.000000 76.244877 12.780000 15.000000
3225 0 1 0.000000 77.474633 13.490000 15.000000
3226 0 1 0.000000 77.474633 14.910000 15.000000
3227 0 1 0.000000 78.704389 15.620000 15.000000
3228 0 1 0.000000 78.704389 17.040000 15.000000
3229 0 1 0.000000 79.934145 17.750000 15.000000
3230 0 1 0.000000 79.934145 19.170000 15.000000
3231 0 1 0.000000 81.163901 19.880000 15.000000
3232 0 1 0.000000 81.163901 21.300000 15.000000
3233 0 1 0.000000 82.393657 22.010000 15.000000
3234 0 1 0.000000 82.393657 23.430000 15.000000
3235 0 1 0.000000 83.623413 24.140000 15.000000
3236 0 1 0.000000 83.623413 25.560000 15.000000
3237 0 1 0.000000 84.853169 26.270000 15.000000
3238 0 1 0.000000 84.853169 27.690000 15.000000
3239 0 1 0.000000 86.082925 28.400000 15.000000
3240 0 1 0.000000 86.082925 29.820000 15.000000
3241 0 1 0.000000 87.312681 30.530000 15.000000
3242 0 1 0.000000 87.312681 31.950000 15.000000
3243 0 1 0.000000 88.542437 32.660000 15.000000
3244 0 1 0.000000 88.542437 34.080000 15.000000
3245 0 1 0.000000 89.772193 34.790000 15.000000
3246 0 1 0.000000 89.772193 36.210000 15.000000
3247 0 1 0.000000 91.001949 36.920000 15.000000
3248 0 1 0.000000 91.001949 38.340000 15.000000
3249 0 1 0.000000 92.231706 39.050000 15.000000
3250 0 1 0.000000 71.325852 0.000000 15.000000
3251 0 1 0.000000 72.555608 0.710000 15.000000
3252 0 1 0.000000 72.555608 2.130000 15.000000
3253 0 1 0.000000 73.785364 2.840000 15.000000
3254 0 1 0.000000 73.785364 4.260000 15.000000
3255 0 1 0.000000 75.015120 4.970000 15.000000
3256 0 1 0.000000 75.015120 6.390000 15.000000
3257 0 1 0.000000 76.244877 7.100000 15.000000
3258 0 1 0.000000 76.244877 8.520000 15.000000
3259 0 1 0.000000 77.474633 9.230000 15.000000
3260 0 1 0.000000 77.474633 10.650000 15.000000
3261 0 1 0.000000 78.704389 11.360000 15.000000
3262 0 1 0.000000 78.704389 12.780000 15.000000
3263 0 1 0.000000 79.934145 13.490000 15.000000
3264 0 1 0.000000 79.934145 14.910000 15.000000
3265 0 1 0.000000 81.163901 15.620000 15.000000
3266 0 1 0.000000 81.163901 17.040000 15.000000
3267 0 1 0.000000 82.393657 17.750000 15.000000
3268 0 1 0.000000 82.393657 19.170000 15.000000
3269 0 1 0.000000 83.623413 19.880000 15.000000
3270 0 1 0.000000 83.623413 21.300000 15.000000
3271 0 1 0.000000 84.853169 22.010000 15.000000
3272 0 1 0.000000 84.853169 23.430000 15.000000
3273 0 1 0.000000 86.082925 24.140000 15.000000
3274 0 1 0.000000 86.082925 25.560000 15.000000
3275 0 1 0.000000 87.312681 26.270000 15.000000
3276 0 1 0.000000 87.312681 27.690000 15.000000
3277 0 1 0.000000 88.542437 28.400000 15.000000
3278 0 1 0.000000 88.542437 29.820000 15.000000
3279 0 1 0.000000 89.772193 30.530000 15.000000
3280 0 1 0.000000 89.772193 31.950000 15.000000
3281 0 1 0.000000 91.001949 32.660000 15.000000
3282 0 1 0.000000 91.001949 34.080000 15.000000
3283 0 1 0.000000 92.231706 34.790000 15.000000
3284 0 1 0.000000 92.231706 36.210000 15.000000
3285 0 1 0.000000 93.461462 36.920000 15.000000
3286 0 1 0.000000 93.461462 38.340000 15.000000
3287 0 1 0.000000 94.691218 39.050000 15.000000
3288 0 1 0.000000 73.785364 0.000000 15.000000
3289 0 1 0.000000 75.015120 0.710000 15.000000
3290 0 1 0.000000 75.015120 2.130000 15.000000
3291 0 1 0.000000 76.244877 2.840000 15.000000
3292 0 1 0.000000 76.244877 4.260000 15.000000
3293 0 1 0.000000 77.474633 4.970000 15.000000
3294 0 1 0.000000 77.474633 6.390000 15.000000
3295 0 1 0.000000 78.704389 7.100000 15.000000
3296 0 1 0.000000 78.704389 8.520000 15.000000
3297 0 1 0.000000 79.934145 9.230000 15.000000
3298 0 1 0.000000 79.934145 10.650000 15.000000
3299 0 1 0.000000 81.163901 11.360000 15.000000
3300 0 1 0.000000 81.163901 12.780000 15.000000
3301 0 1 0.000000 82.393657 13.490000 15.000000
3302 0 1 0.000000 82.393657 14.910000 15.000000
3303 0 1 0.000000 83.623413 15.620000 15.000000
3304 0 1 0.000000 83.623413 17.040000 15.000000
3305 0 1 0.000000 84.853169 17.750000 15.000000
3306 0 1 0.000000 84.853169 19.170000 15.000000
3307 0 1 0.000000 86.082925 19.880000 15.000000
3308 0 1 0.000000 86.082925 21.300000 15.000000
3309 0 1 0.000000 87.312681 22.010000 15.000000
3310 0 1 0.000000 87.312681 23.430000 15.000000
3311 0 1 0.000000 88.542437 24.140000 15.000000
3312 0 1 0.000000 88.542437 25.560000 15.000000
3313 0 1 0.000000 89.772193 26.270000 15.000000
3314 0 1 0.000000 89.772193 27.690000 15.000000
3315 0 1 0.000000 91.001949 28.400000 15.000000
3316 0 1 0.000000 91.001949 29.820000 15.000000
3317 0 1 0.000000 92.231706 30.530000 15.000000
3318 0 1 0.000000 92.231706 31.950000 15.000000
3319 0 1 0.000000 93.461462 32.660000 15.000000
3320 0 1 0.000000 93.461462 34.080000 15.000000
3321 0 1 0.000000 94.691218 34.790000 15.000000
3322 0 1 0.000000 94.691218 36.210000 15.000000
3323 0 1 0.000000 95.920974 36.920000 15.000000
3324 0 1 0.000000 95.920974 38.340000 15.000000
3325 0 1 0.000000 97.150730 39.050000 15.000000
3326 0 1 0.000000 76.244877 0.000000 15.000000
3327 0 1 0.000000 77.474633 0.710000 15.000000
3328 0 1 0.000000 77.474633 2.130000 15.000000
3329 0 1 0.000000 78.704389 2.840000 15.000000
3330 0 1 0.000000 78.704389 4.260000 15.000000
3331 0 1 0.000000 79.934145 4.970000 15.000000
3332 0 1 0.000000 79.934145 6.390000 15.000000
3333 0 1 0.000000 81.163901 7.100000 15.000000
3334 0 1 0.000000 81.163901 8.520000 15.000000
3335 0 1 0.000000 82.393657 9.230000 15.000000
3336 0 1 0.000000 82.393657 10.650000 15.000000
3337 0 1 0.000000 83.623413 11.360000 15.000000
3338 0 1 0.000000 83.623413 12.780000 15.000000
3339 0 1 0.000000 84.853169 13.490000 15.000000
3340 0 1 0.000000 84.853169 14.910000 15.000000
3341 0 1 0.000000 86.082925 15.620000 15.000000
3342 0 1 0.000000 86.082925 17.040000 15.000000
3343 0 1 0.000000 87.312681 17.750000 15.000000
3344 0 1 0.000000 87.312681 19.170000 15.000000
3345 0 1 0.000000 88.542437 19.880000 15.000000
3346 0 1 0.000000 88.542437 21.300000 15.000000
3347 0 1 0.000000 89.772193 22.010000 15.000000
3348 0 1 0.000000 89.772193 23.430000 15.000000
3349 0 1 0.000000 91.001949 24.140000 15.000000
3350 0 1 0.000000 91.001949 25.560000 15.000000
3351 0 1 0.000000 92.231706 26.270000 15.000000
3352 0 1 0.000000 92.231706 27.690000 15.000000
3353 0 1 0.000000 93.461462 28.400000 15.000000
3354 0 1 0.000000 93.461462 29.820000 15.000000
3355 0 1 0.000000 94.691218 30.530000 15.000000
3356 0 1 0.000000 94.691218 31.950000 15.000000
3357 0 1 0.000000 95.920974 32.660000 15.000000
3358 0 1 0.000000 95.920974 34.080000 15.000000
3359 0 1 0.000000 97.150730 34.790000 15.000000
3360 0 1 0.000000 97.150730 36.210000 15.000000
3361 0 1 0.000000 98.380486 36.920000 15.000000
3362 0 1 0.000000 98.380486 38.340000 15.000000
3363 0 1 0.000000 99.610242 39.050000 15.000000
3364 0 1 0.000000 78.704389 0.000000 15.000000
3365 0 1 0.000000 79.934145 0.710000 15.000000
3366 0 1 0.000000 79.934145 2.130000 15.000000
3367 0 1 0.000000 81.163901 2.840000 15.000000
3368 0 1 0.000000 81.163901 4.260000 15.000000
3369 0 1 0.000000 82.393657 4.970000 15.000000
3370 0 1 0.000000 82.393657 6.390000 15.000000
3371 0 1 0.000000 83.623413 7.100000 15.000000
3372 0 1 0.000000 83.623413 8.520000 15.000000
3373 0 1 0.000000 84.853169 9.230000 15.000000
3374 0 1 0.000000 84.853169 10.650000 15.000000
3375 0 1 0.000000 86.082925 11.360000 15.000000
3376 0 1 0.000000 86.082925 12.780000 15.000000
3377 0 1 0.000000 87.312681 13.490000 15.000000
3378 0 1 0.000000 87.312681 14.910000 15.000000
3379 0 1 0.000000 88.542437 15.620000 15.000000
3380 0 1 0.000000 88.542437 17.040000 15.000000
3381 0 1 0.000000 89.772193 17.750000 15.000000
3382 0 1 0.000000 89.772193 19.170000 15.000000
3383 0 1 0.000000 91.001949 19.880000 15.000000
3384 0 1 0.000000 91.001949 21.300000 15.000000
3385 0 1 0.000000 92.231706 22.010000 15.000000
3386 0 1 0.000000 92.231706 23.430000 15.000000
3387 0 1 0.000000 93.461462 24.140000 15.000000
3388 0 1 0.000000 93.461462 25.560000 15.000000
3389 0 1 0.000000 94.691218 26.270000 15.000000
3390 0 1 0.000000 94.691218 27.690000 15.000000
3391 0 1 0.000000 95.920974 28.400000 15.000000
3392 0 1 0.000000 95.920974 29.820000 15.000000
3393 0 1 0.000000 97.150730 30.530000 15.000000
3394 0 1 0.000000 97.150730 31.950000 15.000000
3395 0 1 0.000000 98.380486 32.660000 15.000000
3396 0 1 0.000000 98.380486 34.080000 15.000000
3397 0 1 0.000000 99.610242 34.790000 15.000000
3398 0 1 0.000000 99.610242 36.210000 15.000000
3399 0 1 0.000000 100.839998 36.920000 15.000000
3400 0 1 0.000000 100.839998 38.340000 15.000000
3401 0 1 0.000000 102.069754 39.050000 15.000000
3402 0 1 0.000000 81.163901 0.000000 15.000000
3403 0 1 0.000000 82.393657 0.710000 15.000000
3404 0 1 0.000000 82.393657 2.130000 15.000000
3405 0 1 0.000000 83.623413 2.840000 15.000000
3406 0 1 0.000000 83.623413 4.260000 15.000000
3407 0 1 0.000000 84.853169 4.970000 15.000000
3408 0 1 0.000000 84.853169 6.390000 15.000000
3409 0 1 0.000000 86.082925 7.100000 15.000000
3410 0 1 0.000000 86.082925 8.520000 15.000000
3411 0 1 0.000000 87.312681 9.230000 15.000000
3412 0 1 0.000000 87.312681 10.650000 15.000000
3413 0 1 0.000000 88.542437 11.360000 15.000000
3414 0 1 0.000000 88.542437 12.780000 15.000000
3415 0 1 0.000000 89.772193 13.490000 15.000000
3416 0 1 0.000000 89.772193 14.910000 15.000000
3417 0 1 0.000000 91.001949 15.620000 15.000000
3418 0 1 0.000000 91.001949 17.040000 15.000000
3419 0 1 0.000000 92.231706 17.750000 15.000000
3420 0 1 0.000000 92.231706 19.170000 15.000000
3421 0 1 0.000000 93.461462 19.880000 15.000000
3422 0 1 0.000000 93.461462 21.300000 15.000000
3423 0 1 0.000000 94.691218 22.010000 15.000000
3424 0 1 0.000000 94.691218 23.430000 15.000000
3425 0 1 0.000000 95.920974 24.140000 15.000000
3426 0 1 0.000000 95.920974 25.560000 15.000000
3427 0 1 0.000000 97.150730 26.270000 15.000000
3428 0 1 0.000000 97.150730 27.690000 15.000000
3429 0 1 0.000000 98.380486 28.400000 15.000000
3430 0 1 0.000000 98.380486 29.820000 15.000000
3431 0 1 0.000000 99.610242 30.530000 15.000000
3432 0 1 0.000000 99.610242 31.950000 15.000000
3433 0 1 0.000000 100.839998 32.660000 15.000000
3434 0 1 0.000000 100.839998 34.080000 15.000000
3435 0 1 0.000000 102.069754 34.790000 15.000000
3436 0 1 0.000000 102.069754 36.210000 15.000000
3437 0 1 0.000000 103.299510 36.920000 15.000000
3438 0 1 0.000000 103.299510 38.340000 15.000000
3439 0 1 0.000000 104.529266 39.050000 15.000000
3440 0 1 0.000000 83.623413 0.000000 15.000000
3441 0 1 0.000000 84.853169 0.710000 15.000000
3442 0 1 0.000000 84.853169 2.130000 15.000000
3443 0 1 0.000000 86.082925 2.840000 15.000000
3444 0 1 0.000000 86.082925 4.260000 15.000000
3445 0 1 0.000000 87.312681 4.970000 15.000000
3446 0 1 0.000000 87.312681 6.390000 15.000000
3447 0 1 0.000000 88.542437 7.100000 15.000000
3448 0 1 0.000000 88.542437 8.520000 15.000000
3449 0 1 0.000000 89.772193 9.230000 15.000000
3450 0 1 0.000000 89.772193 10.650000 15.000000
3451 0 1 0.000000 91.001949 11.360000 15.000000
3452 0 1 0.000000 91.001949 12.780000 15.000000
3453 0 1 0.000000 92.231706 13.490000 15.000000
3454 0 1 0.000000 92.231706 14.910000 15.000000
3455 0 1 0.000000 93.461462 15.620000 15.000000
3456 0 1 0.000000 93.461462 17.040000 15.000000
3457 0 1 0.000000 94.691218 17.750000 15.000000
3458 0 1 0.000000 94.691218 19.170000 15.000000
3459 0 1 0.000000 95.920974 19.880000 15.000000
3460 0 1 0.000000 95.920974 21.300000 15.000000
3461 0 1 0.000000 97.150730 22.010000 15.000000
3462 0 1 0.000000 97.150730 23.430000 15.000000
3463 0 1 0.000000 98.380486 24.140000 15.000000
3464 0 1 0.000000 98.380486 25.560000 15.000000
3465 0 1 0.000000 99.610242 26.270000 15.000000
3466 0 1 0.000000 99.610242 27.690000 15.000000
3467 0 1 0.000000 100.839998 28.400000 15.000000
3468 0 1 0.000000 100.839998 29.820000 15.000000
3469 0 1 0.000000 102.069754 30.530000 15.000000
3470 0 1 0.000000 102.069754 31.950000 15.000000
3471 0 1 0.000000 103.299510 32.660000 15.000000
3472 0 1 0.000000 103.299510 34.080000 15.000000
3473 0 1 0.000000 104.529266 34.790000 15.000000
3474 0 1 0.000000 104.529266 36.210000 15.000000
3475 0 1 0.000000 105.759022 36.920000 15.000000
3476 0 1 0.000000 105.759022 38.340000 15.000000
3477 0 1 0.000000 106.988778 39.050000 15.000000
3478 0 1 0.000000 86.082925 0.000000 15.000000
3479 0 1 0.000000 87.312681 0.710000 15.000000
3480 0 1 0.000000 87.312681 2.130000 15.000000
3481 0 1 0.000000 88.542437 2.840000 15.000000
3482 0 1 0.000000 88.542437 4.260000 15.000000
3483 0 1 0.000000 89.772193 4.970000 15.000000
3484 0 1 0.000000 89.772193 6.390000 15.000000
3485 0 1 0.000000 91.001949 7.100000 15.000000
3486 0 1 0.000000 91.001949 8.520000 15.000000
3487 0 1 0.000000 92.231706 9.230000 15.000000
3488 0 1 0.000000 92.231706 10.650000 15.000000
3489 0 1 0.000000 93.461462 11.360000 15.000000
3490 0 1 0.000000 93.461462 12.780000 15.000000
3491 0 1 0.000000 94.691218 13.490000 15.000000
3492 0 1 0.000000 94.691218 14.910000 15.000000
3493 0 1 0.000000 95.920974 15.620000 15.000000
3494 0 1 0.000000 95.920974 17.040000 15.000000
3495 0 1 0.000000 97.150730 17.750000 15.000000
3496 0 1 0.000000 97.150730 19.170000 15.000000
3497 0 1 0.000000 98.380486 19.880000 15.000000
3498 0 1 0.000000 98.380486 21.300000 15.000000
3499 0 1 0.000000 99.610242 22.010000 15.000000
3500 0 1 0.000000 99.610242 23.430000 15.000000
3501 0 1 0.000000 100.839998 24.140000 15.000000
3502 0 1 0.000000 100.839998 25.560000 15.000000
3503 0 1 0.000000 102.069754 26.270000 15.000000
3504 0 1 0.000000 102.069754 27.690000 15.000000
3505 0 1 0.000000 103.299510 28.400000 15.000000
3506 0 1 0.000000 103.299510 29.820000 15.000000
3507 0 1 0.000000 104.529266 30.530000 15.000000
3508 0 1 0.000000 104.529266 31.950000 15.000000
3509 0 1 0.000000 105.759022 32.660000 15.000000
3510 0 1 0.000000 105.759022 34.080000 15.000000
3511 0 1 0.000000 106.988778 34.790000 15.000000
3512 0 1 0.000000 106.988778 36.210000 15.000000
3513 0 1 0.000000 108.218534 36.920000 15.000000
3514 0 1 0.000000 108.218534 38.340000 15.000000
3515 0 1 0.000000 109.448291 39.050000 15.000000
3516 0 1 0.000000 88.542437 0.000000 15.000000
3517 0 1 0.000000 89.772193 0.710000 15.000000
3518 0 1 0.000000 89.772193 2.130000 15.000000
3519 0 1 0.000000 91.001949 2.840000 15.000000
3520 0 1 0.000000 91.001949 4.260000 15.000000
3521 0 1 0.000000 92.231706 4.970000 15.000000
3522 0 1 0.000000 92.231706 6.390000 15.000000
3523 0 1 0.000000 93.461462 7.100000 15.000000
3524 0 1 0.000000 93.461462 8.520000 15.000000
3525 0 1 0.000000 94.691218 9.230000 15.000000
3526 0 1 0.000000 94.691218 10.650000 15.000000
3527 0 1 0.000000 95.920974 11.360000 15.000000
3528 0 1 0.000000 95.920974 12.780000 15.000000
3529 0 1 0.000000 97.150730 13.490000 15.000000
3530 0 1 0.000000 97.150730 14.910000 15.000000
3531 0 1 0.000000 98.380486 15.620000 15.000000
3532 0 1 0.000000 98.380486 17.040000 15.000000
3533 0 1 0.000000 99.610242 17.750000 15.000000
3534 0 1 0.000000 99.610242 19.170000 15.000000
3535 0 1 0.000000 100.839998 19.880000 15.000000
3536 0 1 0.000000 100.839998 21.300000 15.000000
3537 0 1 0.000000 102.069754 22.010000 15.000000
3538 0 1 0.000000 102.069754 23.430000 15.000000
3539 0 1 0.000000 103.299510 24.140000 15.000000
3540 0 1 0.000000 103.299510 25.560000 15.000000
3541 0 1 0.000000 104.529266 26.270000 15.000000
3542 0 1 0.000000 104.529266 27.690000 15.000000
3543 0 1 0.000000 105.759022 28.400000 15.000000
3544 0 1 0.000000 105.759022 29.820000 15.000000
3545 0 1 0.000000 106.988778 30.530000 15.000000
3546 0 1 0.000000 106.988778 31.950000 15.000000
3547 0 1 0.000000 108.218534 32.660000 15.000000
3548 0 1 0.000000 108.218534 34.080000 15.000000
3549 0 1 0.000000 109.448291 34.790000 15.000000
3550 0 1 0.000000 109.448291 36.210000 15.000000
3551 0 1 0.000000 110.678047 36.920000 15.000000
3552 0 1 0.000000 110.678047 38.340000 15.000000
3553 0 1 0.000000 111.907803 39.050000 15.000000
3554 0 1 0.000000 91.001949 0.000000 15.000000
3555 0 1 0.000000 92.231706 0.710000 15.000000
3556 0 1 0.000000 92.231706 2.130000 15.000000
3557 0 1 0.000000 93.461462 2.840000 15.000000
3558 0 1 0.000000 93.461462 4.260000 15.000000
3559 0 1 0.000000 94.691218 4.970000 15.000000
3560 0 1 0.000000 94.691218 6.390000 15.000000
3561 0 1 0.000000 95.920974 7.100000 15.000000
3562 0 1 0.000000 95.920974 8.520000 15.000000
3563 0 1 0.000000 97.150730 9.230000 15.000000
3564 0 1 0.000000 97.150730 10.650000 15.000000
3565 0 1 0.000000 98.380486 11.360000 15.000000
3566 0 1 0.000000 98.380486 12.780000 15.000000
3567 0 1 0.000000 99.610242 13.490000 15.000000
3568 0 1 0.000000 99.610242 14.910000 15.000000
3569 0 1 0.000000 100.839998 15.620000 15.000000
3570 0 1 0.000000 100.839998 17.040000 15.000000
3571 0 1 0.000000 102.069754 17.750000 15.000000
3572 0 1 0.000000 102.069754 19.170000 15.000000
3573 0 1 0.000000 103.299510 19.880000 15.000000
3574 0 1 0.000000 103.299510 21.300000 15.000000
3575 0 1 0.000000 104.529266 22.010000 15.000000
3576 0 1 0.000000 104.529266 23.430000 15.000000
3577 0 1 0.000000 105.759022 24.140000 15.000000
3578 0 1 0.000000 105.759022 25.560000 15.000000
3579 0 1 0.000000 106.988778 26.270000 15.000000
3580 0 1 0.000000 106.988778 27.690000 15.000000
3581 0 1 0.000000 108.218534 28.400000 15.000000
3582 0 1 0.000000 108.218534 29.820000 15.000000
3583 0 1 0.000000 109.448291 30.530000 15.000000
3584 0 1 0.000000 109.448291 31.950000 15.000000
3585 0 1 0.000000 110.678047 32.660000 15.000000
3586 0 1 0.000000 110.678047 34.080000 15.000000
3587 0 1 0.000000 111.907803 34.790000 15.000000
3588 0 1 0.000000 111.907803 36.210000 15.000000
3589 0 1 0.000000 113.137559 36.920000 15.000000
3590 0 1 0.000000 113.137559 38.340000 15.000000
3591 0 1 0.000000 114.367315 39.050000 15.000000
3592 0 1 0.000000 93.461462 0.000000 15.000000
3593 0 1 0.000000 94.691218 0.710000 15.000000
3594 0 1 0.000000 94.691218 2.130000 15.000000
3595 0 1 0.000000 95.920974 2.840000 15.000000
3596 0 1 0.000000 95.920974 4.260000 15.000000
3597 0 1 0.000000 97.150730 4.970000 15.000000
3598 0 1 0.000000 97.150730 6.390000 15.000000
3599 0 1 0.000000 98.380486 7.100000 15.000000
3600 0 1 0.000000 98.380486 8.520000 15.000000
3601 0 1 0.000000 99.610242 9.230000 15.000000
3602 0 1 0.000000 99.610242 10.650000 15.000000
3603 0 1 0.000000 100.839998 11.360000 15.000000
3604 0 1 0.000000 100.839998 12.780000 15.000000
3605 0 1 0.000000 102.069754 13.490000 15.000000
3606 0 1 0.000000 102.069754 14.910000 15.000000
3607 0 1 0.000000 103.299510 15.620000 15.000000
3608 0 1 0.000000 103.299510 17.040000 15.000000
3609 0 1 0.000000 104.529266 17.750000 15.000000
3610 0 1 0.000000 104.529266 19.170000 15.000000
3611 0 1 0.000000 105.759022 19.880000 15.000000
3612 0 1 0.000000 105.759022 21.300000 15.000000
3613 0 1 0.000000 106.988778 22.010000 15.000000
3614 0 1 0.000000 106.988778 23.430000 15.000000
3615 0 1 0.000000 108.218534 24.140000 15.000000
3616 0 1 0.000000 108.218534 25.560000 15.000000
3617 0 1 0.000000 109.448291 26.270000 15.000000
3618 0 1 0.000000 109.448291 27.690000 15.000000
3619 0 1 0.000000 110.678047 28.400000 15.000000
3620 0 1 0.000000 110.678047 29.820000 15.000000
3621 0 1 0.000000 111.907803 30.530000 15.000000
3622 0 1 0.000000 111.907803 31.950000 15.000000
3623 0 1 0.000000 113.137559 32.660000 15.000000
3624 0 1 0.000000 113.137559 34.080000 15.000000
3625 0 1 0.000000 114.367315 34.790000 15.000000
3626 0 1 0.000000 114.367315 36.210000 15.000000
3627 0 1 0.000000 115.597071 36.920000 15.000000
3628 0 1 0.000000 115.597071 38.340000 15.000000
3629 0 1 0.000000 116.826827 39.050000 15.000000
3630 0 1 0.000000 95.920974 0.000000 15.000000
3631 0 1 0.000000 97.150730 0.710000 15.000000
3632 0 1 0.000000 97.150730 2.130000 15.000000
3633 0 1 0.000000 98.380486 2.840000 15.000000
3634 0 1 0.000000 98.380486 4.260000 15.000000
3635 0 1 0.000000 99.610242 4.970000 15.000000
3636 0 1 0.000000 99.610242 6.390000 15.000000
3637 0 1 0.000000 100.839998 7.100000 15.000000
3638 0 1 0.000000 100.839998 8.520000 15.000000
3639 0 1 0.000000 102.069754 9.230000 15.000000
3640 0 1 0.000000 102.069754 10.650000 15.000000
3641 0 1 0.000000 103.299510 11.360000 15.000000
3642 0 1 0.000000 103.299510 12.780000 15.000000
3643 0 1 0.000000 104.529266 13.490000 15.000000
3644 0 1 0.000000 104.529266 14.910000 15.000000
3645 0 1 0.000000 105.759022 15.620000 15.000000
3646 0 1 0.000000 105.759022 17.040000 15.000000
3647 0 1 0.000000 106.988778 17.750000 15.000000
3648 0 1 0.000000 106.988778 19.170000 15.000000
3649 0 1 0.000000 108.218534 19.880000 15.000000
3650 0 1 0.000000 108.218534 21.300000 15.000000
3651 0 1 0.000000 109.448291 22.010000 15.000000
3652 0 1 0.000000 109.448291 23.430000 15.000000
3653 0 1 0.000000 110.678047 24.140000 15.000000
3654 0 1 0.000000 110.678047 25.560000 15.000000
3655 0 1 0.000000 111.907803 26.270000 15.000000
3656 0 1 0.000000 111.907803 27.690000 15.000000
3657 0 1 0.000000 113.137559 28.400000 15.000000
3658 0 1 0.000000 113.137559 29.820000 15.000000
3659 0 1 0.000000 114.367315 30.530000 15.000000
3660 0 1 0.000000 114.367315 31.950000 15.000000
3661 0 1 0.000000 115.597071 32.660000 15.000000
3662 0 1 0.000000 115.597071 34.080000 15.000000
3663 0 1 0.000000 116.826827 34.790000 15.000000
3664 0 1 0.000000 116.826827 36.210000 15.000000
3665 0 1 0.000000 118.056583 36.920000 15.000000
3666 0 1 0.000000 118.056583 38.340000 15.000000
3667 0 1 0.000000 119.286339 39.050000 15.000000
3668 0 1 0.000000 98.380486 0.000000 15.000000
3669 0 1 0.000000 99.610242 0.710000 15.000000
3670 0 1 0.000000 99.610242 2.130000 15.000000
3671 0 1 0.000000 100.839998 2.840000 15.000000
3672 0 1 0.000000 100.839998 4.260000 15.000000
3673 0 1 0.000000 102.069754 4.970000 15.000000
3674 0 1 0.000000 102.069754 6.390000 15.000000
3675 0 1 0.000000 103.299510 7.100000 15.000000
3676 0 1 0.000000 103.299510 8.520000 15.000000
3677 0 1 0.000000 104.529266 9.230000 15.000000
3678 0 1 0.000000 104.529266 10.650000 15.000000
3679 0 1 0.000000 105.759022 11.360000 15.000000
3680 0 1 0.000000 105.759022 12.780000 15.000000
3681 0 1 0.000000 106.988778 13.490000 15.000000
3682 0 1 0.000000 106.988778 14.910000 15.000000
3683 0 1 0.000000 108.218534 15.620000 15.000000
3684 0 1 0.000000 108.218534 17.040000 15.000000
3685 0 1 0.000000 109.448291 17.750000 15.000000
3686 0 1 0.000000 109.448291 19.170000 15.000000
3687 0 1 0.000000 110.678047 19.880000 15.000000
3688 0 1 0.000000 110.678047 21.300000 15.000000
3689 0 1 0.000000 111.907803 22.010000 15.000000
3690 0 1 0.000000 111.907803 23.430000 15.000000
3691 0 1 0.000000 113.137559 24.140000 15.000000
3692 0 1 0.000000 113.137559 25.560000 15.000000
3693 0 1 0.000000 114.367315 26.270000 15.000000
3694 0 1 0.000000 114.367315 27.690000 15.000000
3695 0 1 0.000000 115.597071 28.400000 15.000000
3696 0 1 0.000000 115.597071 29.820000 15.000000
3697 0 1 0.000000 116.826827 30.530000 15.000000
3698 0 1 0.000000 116.826827 31.950000 15.000000
3699 0 1 0.000000 118.056583 32.660000 15.000000
3700 0 1 0.000000 118.056583 34.080000 15.000000
3701 0 1 0.000000 119.286339 34.790000 15.000000
3702 0 1 0.000000 119.286339 36.210000 15.000000
3703 0 1 0.000000 120.516095 36.920000 15.000000
3704 0 1 0.000000 120.516095 38.340000 15.000000
3705 0 1 0.000000 121.745851 39.050000 15.000000
3706 0 1 0.000000 100.839998 0.000000 15.000000
3707 0 1 0.000000 102.069754 0.710000 15.000000
3708 0 1 0.000000 102.069754 2.130000 15.000000
3709 0 1 0.000000 103.299510 2.840000 15.000000
3710 0 1 0.000000 103.299510 4.260000 15.000000
3711 0 1 0.000000 104.529266 4.970000 15.000000
3712 0 1 0.000000 104.529266 6.390000 15.000000
3713 0 1 0.000000 105.759022 7.100000 15.000000
3714 0 1 0.000000 105.759022 8.520000 15.000000
3715 0 1 0.000000 106.988778 9.230000 15.000000
3716 0 1 0.000000 106.988778 10.650000 15.000000
3717 0 1 0.000000 108.218534 11.360000 15.000000
3718 0 1 0.000000 108.218534 12.780000 15.000000
3719 0 1 0.000000 109.448291 13.490000 15.000000
3720 0 1 0.000000 109.448291 14.910000 15.000000
3721 0 1 0.000000 110.678047 15.620000 15.000000
3722 0 1 0.000000 110.678047 17.040000 15.000000
3723 0 1 0.000000 111.907803 17.750000 15.000000
3724 0 1 0.000000 111.907803 19.170000 15.000000
3725 0 1 0.000000 113.137559 19.880000 15.000000
3726 0 1 0.000000 113.137559 21.300000 15.000000
3727 0 1 0.000000 114.367315 22.010000 15.000000
3728 0 1 0.000000 114.367315 23.430000 15.000000
3729 0 1 0.000000 115.597071 24.140000 15.000000
3730 0 1 0.000000 115.597071 25.560000 15.000000
3731 0 1 0.000000 116.826827 26.270000 15.000000
3732 0 1 0.000000 116.826827 27.690000 15.000000
3733 0 1 0.000000 118.056583 28.400000 15.000000
3734 0 1 0.000000 118.056583 29.820000 15.000000
3735 0 1 0.000000 119.286339 30.530000 15.000000
3736 0 1 0.000000 119.286339 31.950000 15.000000
3737 0 1 0.000000 120.516095 32.660000 15.000000
3738 0 1 0.000000 120.516095 34.080000 15.000000
3739 0 1 0.000000 121.745851 34.790000 15.000000
3740 0 1 0.000000 121.745851 36.210000 15.000000
3741 0 1 0.000000 122.975607 36.920000 15.000000
3742 0 1 0.000000 122.975607 38.340000 15.000000
3743 0 1 0.000000 124.205363 39.050000 15.000000
3744 0 1 0.000000 103.299510 0.000000 15.000000
3745 0 1 0.000000 104.529266 0.710000 15.000000
3746 0 1 0.000000 104.529266 2.130000 15.000000
3747 0 1 0.000000 105.759022 2.840000 15.000000
3748 0 1 0.000000 105.759022 4.260000 15.000000
3749 0 1 0.000000 106.988778 4.970000 15.000000
3750 0 1 0.000000 106.988778 6.390000 15.000000
3751 0 1 0.000000 108.218534 7.100000 15.000000
3752 0 1 0.000000 108.218534 8.520000 15.000000
3753 0 1 0.000000 109.448291 9.230000 15.000000
3754 0 1 0.000000 109.448291 10.650000 15.000000
3755 0 1 0.000000 110.678047 11.360000 15.000000
3756 0 1 0.000000 110.678047 12.780000 15.000000
3757 0 1 0.000000 111.907803 13.490000 15.000000
3758 0 1 0.000000 111.907803 14.910000 15.000000
3759 0 1 0.000000 113.137559 15.620000 15.000000
3760 0 1 0.000000 113.137559 17.040000 15.000000
3761 0 1 0.000000 114.367315 17.750000 15.000000
3762 0 1 0.000000 114.367315 19.170000 15.000000
3763 0 1 0.000000 115.597071 19.880000 15.000000
3764 0 1 0.000000 115.597071 21.300000 15.000000
3765 0 1 0.000000 116.826827 22.010000 15.000000
3766 0 1 0.000000 116.826827 23.430000 15.000000
3767 0 1 0.000000 118.056583 24.140000 15.000000
3768 0 1 0.000000 118.056583 25.560000 15.000000
3769 0 1 0.000000 119.286339 26.270000 15.000000
3770 0 1 0.000000 119.286339 27.690000 15.000000
3771 0 1 0.000000 120.516095 28.400000 15.000000
3772 0 1 0.000000 120.516095 29.820000 15.000000
3773 0 1 0.000000 121.745851 30.530000 15.000000
3774 0 1 0.000000 121.745851 31.950000 15.000000
3775 0 1 0.000000 122.975607 32.660000 15.000000
3776 0 1 0.000000 122.975607 34.080000 15.000000
3777 0 1 0.000000 124.205363 34.790000 15.000000
3778 0 1 0.000000 124.205363 36.210000 15.000000
3779 0 1 0.000000 125.435119 36.920000 15.000000
3780 0 1 0.000000 125.435119 38.340000 15.000000
3781 0 1 0.000000 126.664876 39.050000 15.000000
3782 0 1 0.000000 105.759022 0.000000 15.000000
3783 0 1 0.000000 106.988778 0.710000 15.000000
3784 0 1 0.000000 106.988778 2.130000 15.000000
3785 0 1 0.000000 108.218534 2.840000 15.000000
3786 0 1 0.000000 108.218534 4.260000 15.000000
3787 0 1 0.000000 109.448291 4.970000 15.000000
3788 0 1 0.000000 109.448291 6.390000 15.000000
3789 0 1 0.000000 110.678047 7.100000 15.000000
3790 0 1 0.000000 110.678047 8.520000 15.000000
3791 0 1 0.000000 111.907803 9.230000 15.000000
3792 0 1 0.000000 111.907803 10.650000 15.000000
3793 0 1 0.000000 113.137559 11.360000 15.000000
3794 0 1 0.000000 113.137559 12.780000 15.000000
3795 0 1 0.000000 114.367315 13.490000 15.000000
3796 0 1 0.000000 114.367315 14.910000 15.000000
3797 0 1 0.000000 115.597071 15.620000 15.000000
3798 0 1 0.000000 115.597071 17.040000 15.000000
3799 0 1 0.000000 116.826827 17.750000 15.000000
3800 0 1 0.000000 116.826827 19.170000 15.000000
3801 0 1 0.000000 118.056583 19.880000 15.000000
3802 0 1 0.000000 118.056583 21.300000 15.000000
3803 0 1 0.000000 119.286339 22.010000 15.000000
3804 0 1 0.000000 119.286339 23.430000 15.000000
3805 0 1 0.000000 120.516095 24.140000 15.000000
3806 0 1 0.000000 120.516095 25.560000 15.000000
3807 0 1 0.000000 121.745851 26.270000 15.000000
3808 0 1 0.000000 121.745851 27.690000 15.000000
3809 0 1 0.000000 122.975607 28.400000 15.000000
3810 0 1 0.000000 122.975607 29.820000 15.000000
3811 0 1 0.000000 124.205363 30.530000 15.000000
3812 0 1 0.000000 124.205363 31.950000 15.000000
3813 0 1 0.000000 125.435119 32.660000 15.000000
3814 0 1 0.000000 125.435119 34.080000 15.000000
3815 0 1 0.000000 126.664876 34.790000 15.000000
3816 0 1 0.000000 126.664876 36.210000 15.000000
3817 0 1 0.000000 127.894632 36.920000 15.000000
3818 0 1 0.000000 127.894632 38.340000 15.000000
3819 0 1 0.000000 129.124388 39.050000 15.000000
3820 0 1 0.000000 108.218534 0.000000 15.000000
3821 0 1 0.000000 109.448291 0.710000 15.000000
3822 0 1 0.000000 109.448291 2.130000 15.000000
3823 0 1 0.000000 110.678047 2.840000 15.000000
3824 0 1 0.000000 110.678047 4.260000 15.000000
3825 0 1 0.000000 111.907803 4.970000 15.000000
3826 0 1 0.000000 111.907803 6.390000 15.000000
3827 0 1 0.000000 113.137559 7.100000 15.000000
3828 0 1 0.000000 113.137559 8.520000 15.000000
3829 0 1 0.000000 114.367315 9.230000 15.000000
3830 0 1 0.000000 114.367315 10.650000 15.000000
3831 0 1 0.000000 115.597071 11.360000 15.000000
3832 0 1 0.000000 115.597071 12.780000 15.000000
3833 0 1 0.000000 116.826827 13.490000 15.000000
3834 0 1 0.000000 116.826827 14.910000 15.000000
3835 0 1 0.000000 118.056583 15.620000 15.000000
3836 0 1 0.000000 118.056583 17.040000 15.000000
3837 0 1 0.000000 119.286339 17.750000 15.000000
3838 0 1 0.000000 119.286339 19.170000 15.000000
3839 0 1 0.000000 120.516095 19.880000 15.000000
3840 0 1 0.000000 120.516095 21.300000 15.000000
3841 0 1 0.000000 121.745851 22.010000 15.000000
3842 0 1 0.000000 121.745851 23.430000 15.000000
3843 0 1 0.000000 122.975607 24.140000 15.000000
3844 0 1 0.000000 122.975607 25.560000 15.000000
3845 0 1 0.000000 124.205363 26.270000 15.000000
3846 0 1 0.000000 124.205363 27.690000 15.000000
3847 0 1 0.000000 125.435119 28.400000 15.000000
3848 0 1 0.000000 125.435119 29.820000 15.000000
3849 0 1 0.000000 126.664876 30.530000 15.000000
3850 0 1 0.000000 126.664876 31.950000 15.000000
3851 0 1 0.000000 127.894632 32.660000 15.000000
3852 0 1 0.000000 127.894632 34.080000 15.000000
3853 0 1 0.000000 129.124388 34.790000 15.000000
3854 0 1 0.000000 129.124388 36.210000 15.000000
3855 0 1 0.000000 130.354144 36.920000 15.000000
3856 0 1 0.000000 130.354144 38.340000 15.000000
3857 0 1 0.000000 131.583900 39.050000 15.000000
3858 0 1 0.000000 110.678047 0.000000 15.000000
3859 0 1 0.000000 111.907803 0.710000 15.000000
3860 0 1 0.000000 111.907803 2.130000 15.000000
3861 0 1 0.000000 113.137559 2.840000 15.000000
3862 0 1 0.000000 113.137559 4.260000 15.000000
3863 0 1 0.000000 114.367315 4.970000 15.000000
3864 0 1 0.000000 114.367315 6.390000 15.000000
3865 0 1 0.000000 115.597071 7.100000 15.000000
3866 0 1 0.000000 115.597071 8.520000 15.000000
3867 0 1 0.000000 116.826827 9.230000 15.000000
3868 0 1 0.000000 116.826827 10.650000 15.000000
3869 0 1 0.000000 118.056583 11.360000 15.000000
3870 0 1 0.000000 118.056583 12.780000 15.000000
3871 0 1 0.000000 119.286339 13.490000 15.000000
3872 0 1 0.000000 119.286339 14.910000 15.000000
3873 0 1 0.000000 120.516095 15.620000 15.000000
3874 0 1 0.000000 120.516095 17.040000 15.000000
3875 0 1 0.000000 121.745851 17.750000 15.000000
3876 0 1 0.000000 121.745851 19.170000 15.000000
3877 0 1 0.000000 122.975607 19.880000 15.000000
3878 0 1 0.000000 122.975607 21.300000 15.000000
3879 0 1 0.000000 124.205363 22.010000 15.000000
3880 0 1 0.000000 124.205363 23.430000 15.000000
3881 0 1 0.000000 125.435119 24.140000 15.000000
3882 0 1 0.000000 125.435119 25.560000 15.000000
3883 0 1 0.000000 126.664876 26.270000 15.000000
3884 0 1 0.000000 126.664876 27.690000 15.000000
3885 0 1 0.000000 127.894632 28.400000 15.000000
3886 0 1 0.000000 127.894632 29.820000 15.000000
3887 0 1 0.000000 129.124388 30.530000 15.000000
3888 0 1 0.000000 129.124388 31.950000 15.000000
3889 0 1 0.000000 130.354144 32.660000 15.000000
3890 0 1 0.000000 130.354144 34.080000 15.000000
3891 0 1 0.000000 131.583900 34.790000 15.000000
3892 0 1 0.000000 131.583900 36.210000 15.000000
3893 0 1 0.000000 132.813656 36.920000 15.000000
3894 0 1 0.000000 132.813656 38.340000 15.000000
3895 0 1 0.000000 134.043412 39.050000 15.000000
3896 0 1 0.000000 113.137559 0.000000 15.000000
3897 0 1 0.000000 114.367315 0.710000 15.000000
3898 0 1 0.000000 114.367315 2.130000 15.000000
3899 0 1 0.000000 115.597071 2.840000 15.000000
3900 0 1 0.000000 115.597071 4.260000 15.000000
3901 0 1 0.000000 116.826827 4.970000 15.000000
3902 0 1 0.000000 116.826827 6.390000 15.000000
3903 0 1 0.000000 118.056583 7.100000 15.000000
3904 0 1 0.000000 118.056583 8.520000 15.000000
3905 0 1 0.000000 119.286339 9.230000 15.000000
3906 0 1 0.000000 119.286339 10.650000 15.000000
3907 0 1 0.000000 120.516095 11.360000 15.000000
3908 0 1 0.000000 120.516095 12.780000 15.000000
3909 0 1 0.000000 121.745851 13.490000 15.000000
3910 0 1 0.000000 121.745851 14.910000 15.000000
3911 0 1 0.000000 122.975607 15.620000 15.000000
3912 0 1 0.000000 122.975607 17.040000 15.000000
3913 0 1 0.000000 124.205363 17.750000 15.000000
3914 0 1 0.000000 124.205363 19.170000 15.000000
3915 0 1 0.000000 125.435119 19.880000 15.000000
3916 0 1 0.000000 125.435119 21.300000 15.000000
3917 0 1 0.000000 126.664876 22.010000 15.000000
3918 0 1 0.000000 126.664876 23.430000 15.000000
3919 0 1 0.000000 127.894632 24.140000 15.000000
3920 0 1 0.000000 127.894632 25.560000 15.000000
3921 0 1 0.000000 129.124388 26.270000 15.000000
3922 0 1 0.000000 129.124388 27.690000 15.000000
3923 0 1 0.000000 130.354144 28.400000 15.000000
3924 0 1 0.000000 130.354144 29.820000 15.000000
3925 0 1 0.000000 131.583900 30.530000 15.000000
3926 0 1 0.000000 131.583900 31.950000 15.000000
3927 0 1 0.000000 132.813656 32.660000 15.000000
3928 0 1 0.000000 132.813656 34.080000 15.000000
3929 0 1 0.000000 134.043412 34.790000 15.000000
3930 0 1 0.000000 134.043412 36.210000 15.000000
3931 0 1 0.000000 135.273168 36.920000 15.000000
3932 0 1 0.000000 135.273168 38.340000 15.000000
3933 0 1 0.000000 136.502924 39.050000 15.000000
3934 0 1 0.000000 115.597071 0.000000 15.000000
3935 0 1 0.000000 116.826827 0.710000 15.000000
3936 0 1 0.000000 116.826827 2.130000 15.000000
3937 0 1 0.000000 118.056583 2.840000 15.000000
3938 0 1 0.000000 118.056583 4.260000 15.000000
3939 0 1 0.000000 119.286339 4.970000 15.000000
3940 0 1 0.000000 119.286339 6.390000 15.000000
3941 0 1 0.000000 120.516095 7.100000 15.000000
3942 0 1 0.000000 120.516095 8.520000 15.000000
3943 0 1 0.000000 121.745851 9.230000 15.000000
3944 0 1 0.000000 121.745851 10.650000 15.000000
3945 0 1 0.000000 122.975607 11.360000 15.000000
3946 0 1 0.000000 122.975607 12.780000 15.000000
3947 0 1 0.000000 124.205363 13.490000 15.000000
3948 0 1 0.000000 124.205363 14.910000 15.000000
3949 0 1 0.000000 125.435119 15.620000 15.000000
3950 0 1 0.000000 125.435119 17.040000 15.000000
3951 0 1 0.000000 126.664876 17.750000 15.000000
3952 0 1 0.000000 126.664876 19.170000 15.000000
3953 0 1 0.000000 127.894632 19.880000 15.000000
3954 0 1 0.000000 127.894632 21.300000 15.000000
3955 0 1 0.000000 129.124388 22.010000 15.000000
3956 0 1 0.000000 129.124388 23.430000 15.000000
3957 0 1 0.000000 130.354144 24.140000 15.000000
3958 0 1 0.000000 130.354144 25.560000 15.000000
3959 0 1 0.000000 131.583900 26.270000 15.000000
3960 0 1 0.000000 131.583900 27.690000 15.000000
3961 0 1 0.000000 132.813656 28.400000 15.000000
3962 0 1 0.000000 132.813656 29.820000 15.000000
3963 0 1 0.000000 134.043412 30.530000 15.000000
3964 0 1 0.000000 134.043412 31.950000 15.000000
3965 0 1 0.000000 135.273168 32.660000 15.000000
3966 0 1 0.000000 135.273168 34.080000 15.000000
3967 0 1 0.000000 136.502924 34.790000 15.000000
3968 0 1 0.000000 136.502924 36.210000 15.000000
3969 0 1 0.000000 137.732680 36.920000 15.000000
3970 0 1 0.000000 137.732680 38.340000 15.000000
3971 0 1 0.000000 138.962436 39.050000 15.000000
3972 0 1 0.000000 118.056583 0.000000 15.000000
3973 0 1 0.000000 119.286339 0.710000 15.000000
3974 0 1 0.000000 119.286339 2.130000 15.000000
3975 0 1 0.000000 120.516095 2.840000 15.000000
3976 0 1 0.000000 120.516095 4.260000 15.000000
3977 0 1 0.000000 121.745851 4.970000 15.000000
3978 0 1 0.000000 121.745851 6.390000 15.000000
3979 0 1 0.000000 122.975607 7.100000 15.000000
3980 0 1 0.000000 122.975607 8.520000 15.000000
3981 0 1 0.000000 124.205363 9.230000 15.000000
3982 0 1 0.000000 124.205363 10.650000 15.000000
3983 0 1 0.000000 125.435119 11.360000 15.000000
3984 0 1 0.000000 125.435119 12.780000 15.000000
3985 0 1 0.000000 126.664876 13.490000 15.000000
3986 0 1 0.000000 126.664876 14.910000 15.000000
3987 0 1 0.000000 127.894632 15.620000 15.000000
3988 0 1 0.000000 127.894632 17.040000 15.000000
3989 0 1 0.000000 129.124388 17.750000 15.000000
3990 0 1 0.000000 129.124388 19.170000 15.000000
3991 0 1 0.000000 130.354144 19.880000 15.000000
3992 0 1 0.000000 130.354144 21.300000 15.000000
3993 0 1 0.000000 131.583900 22.010000 15.000000
3994 0 1 0.000000 131.583900 23.430000 15.000000
3995 0 1 0.000000 132.813656 24.140000 15.000000
3996 0 1 0.000000 132.813656 25.560000 15.000000
3997 0 1 0.000000 134.043412 26.270000 15.000000
3998 0 1 0.000000 134.043412 27.690000 15.000000
3999 0 1 0.000000 135.273168 28.400000 15.000000
4000 0 1 0.000000 135.273168 29.820000 15.000000
4001 0 1 0.000000 136.502924 30.530000 15.000000
4002 0 1 0.000000 136.502924 31.950000 15.000000
4003 0 1 0.000000 137.732680 32.660000 15.000000
4004 0 1 0.000000 137.732680 34.080000 15.000000
4005 0 1 0.000000 138.962436 34.790000 15.000000
4006 0 1 0.000000 138.962436 36.210000 15.000000
4007 0 1 0.000000 140.192192 36.920000 15.000000
4008 0 1 0.000000 140.192192 38.340000 15.000000
4009 0 1 0.000000 141.421948 39.050000 15.000000
4010 0 1 0.000000 120.516095 0.000000 15.000000
4011 0 1 0.000000 121.745851 0.710000 15.000000
4012 0 1 0.000000 121.745851 2.130000 15.000000
4013 0 1 0.000000 122.975607 2.840000 15.000000
4014 0 1 0.000000 122.975607 4.260000 15.000000
4015 0 1 0.000000 124.205363 4.970000 15.000000
4016 0 1 0.000000 124.205363 6.390000 15.000000
4017 0 1 0.000000 125.435119 7.100000 15.000000
4018 0 1 0.000000 125.435119 8.520000 15.000000
4019 0 1 0.000000 126.664876 9.230000 15.000000
4020 0 1 0.000000 126.664876 10.650000 15.000000
4021 0 1 0.000000 127.894632 11.360000 15.000000
4022 0 1 0.000000 127.894632 12.780000 15.000000
4023 0 1 0.000000 129.124388 13.490000 15.000000
4024 0 1 0.000000 129.124388 14.910000 15.000000
4025 0 1 0.000000 130.354144 15.620000 15.000000
4026 0 1 0.000000 130.354144 17.040000 15.000000
4027 0 1 0.000000 131.583900 17.750000 15.000000
4028 0 1 0.000000 131.583900 19.170000 15.000000
4029 0 1 0.000000 132.813656 19.880000 15.000000
4030 0 1 0.000000 132.813656 21.300000 15.000000
4031 0 1 0.000000 134.043412 22.010000 15.000000
4032 0 1 0.000000 134.043412 23.430000 15.000000
4033 0 1 0.000000 135.273168 24.140000 15.000000
4034 0 1 0.000000 135.273168 25.560000 15.000000
4035 0 1 0.000000 136.502924 26.270000 15.000000
4036 0 1 0.000000 136.502924 27.690000 15.000000
4037 0 1 0.000000 137.732680 28.400000 15.000000
4038 0 1 0.000000 137.732680 29.820000 15.000000
4039 0 1 0.000000 138.962436 30.530000 15.000000
4040 0 1 0.000000 138.962436 31.950000 15.000000
4041 0 1 0.000000 140.192192 32.660000 15.000000
4042 0 1 0.000000 140.192192 34.080000 15.000000
4043 0 1 0.000000 141.421948 34.790000 15.000000
4044 0 1 0.000000 141.421948 36.210000 15.000000
4045 0 1 0.000000 142.651705 36.920000 15.000000
4046 0 1 0.000000 142.651705 38.340000 15.000000
4047 0 1 0.000000 143.881461 39.050000 15.000000
4048 0 1 0.000000 122.975607 0.000000 15.000000
4049 0 1 0.000000 124.205363 0.710000 15.000000
4050 0 1 0.000000 124.205363 2.130000 15.000000
4051 0 1 0.000000 125.435119 2.840000 15.000000
4052 0 1 0.000000 125.435119 4.260000 15.000000
4053 0 1 0.000000 126.664876 4.970000 15.000000
4054 0 1 0.000000 126.664876 6.390000 15.000000
4055 0 1 0.000000 127.894632 7.100000 15.000000
4056 0 1 0.000000 127.894632 8.520000 15.000000
4057 0 1 0.000000 129.124388 9.230000 15.000000
4058 0 1 0.000000 129.124388 10.650000 15.000000
4059 0 1 0.000000 130.354144 11.360000 15.000000
4060 0 1 0.000000 130.354144 12.780000 15.000000
4061 0 1 0.000000 131.583900 13.490000 15.000000
4062 0 1 0.000000 131.583900 14.910000 15.000000
4063 0 1 0.000000 132.813656 15.620000 15.000000
4064 0 1 0.000000 132.813656 17.040000 15.000000
4065 0 1 0.000000 134.043412 17.750000 15.000000
4066 0 1 0.000000 134.043412 19.170000 15.000000
4067 0 1 0.000000 135.273168 19.880000 15.000000
4068 0 1 0.000000 135.273168 21.300000 15.000000
4069 0 1 0.000000 136.502924 22.010000 15.000000
4070 0 1 0.000000 136.502924 23.430000 15.000000
4071 0 1 0.000000 137.732680 24.140000 15.000000
4072 0 1 0.000000 137.732680 25.560000 15.000000
4073 0 1 0.000000 138.962436 26.270000 15.000000
4074 0 1 0.000000 138.962436 27.690000 15.000000
4075 0 1 0.000000 140.192192 28.400000 15.000000
4076 0 1 0.000000 140.192192 29.820000 15.000000
4077 0 1 0.000000 141.421948 30.530000 15.000000
4078 0 1 0.000000 141.421948 31.950000 15.000000
4079 0 1 0.000000 142.651705 32.660000 15.000000
4080 0 1 0.000000 142.651705 34.080000 15.000000
4081 0 1 0.000000 143.881461 34.790000 15.000000
4082 0 1 0.000000 143.881461 36.210000 15.000000
4083 0 1 0.000000 145.111217 36.920000 15.000000
4084 0 1 0.000000 145.111217 38.340000 15.000000
4085 0 1 0.000000 146.340973 39.050000 15.000000
4086 0 1 0.000000 125.435119 0.000000 15.000000
4087 0 1 0.000000 126.664876 0.710000 15.000000
4088 0 1 0.000000 126.664876 2.130000 15.000000
4089 0 1 0.000000 127.894632 2.840000 15.000000
4090 0 1 0.000000 127.894632 4.260000 15.000000
4091 0 1 0.000000 129.124388 4.970000 15.000000
4092 0 1 0.000000 129.124388 6.390000 15.000000
4093 0 1 0.000000 130.354144 7.100000 15.000000
4094 0 1 0.000000 130.354144 8.520000 15.000000
4095 0 1 0.000000 131.583900 9.230000 15.000000
4096 0 1 0.000000 131.583900 10.650000 15.000000
4097 0 1 0.000000 132.813656 11.360000 15.000000
4098 0 1 0.000000 132.813656 12.780000 15.000000
4099 0 1 0.000000 134.043412 13.490000 15.000000
4100 0 1 0.000000 134.043412 14.910000 15.000000
4101 0 1 0.000000 135.273168 15.620000 15.000000
4102 0 1 0.000000 135.273168 17.040000 15.000000
4103 0 1 0.000000 136.502924 17.750000 15.000000
4104 0 1 0.000000 136.502924 19.170000 15.000000
4105 0 1 0.000000 137.732680 19.880000 15.000000
4106 0 1 0.000000 137.732680 21.300000 15.000000
4107 0 1 0.000000 138.962436 22.010000 15.000000
4108 0 1 0.000000 138.962436 23.430000 15.000000
4109 0 1 0.000000 140.192192 24.140000 15.000000
4110 0 1 0.000000 140.192192 25.560000 15.000000
4111 0 1 0.000000 141.421948 26.270000 15.000000
4112 0 1 0.000000 141.421948 27.690000 15.000000
4113 0 1 0.000000 142.651705 28.400000 15.000000
4114 0 1 0.000000 142.651705 29.820000 15.000000
4115 0 1 0.000000 143.881461 30.530000 15.000000
4116 0 1 0.000000 143.881461 31.950000 15.000000
4117 0 1 0.000000 145.111217 32.660000 15.000000
4118 0 1 0.000000 145.111217 34.080000 15.000000
4119 0 1 0.000000 146.340973 34.790000 15.000000
4120 0 1 0.000000 146.340973 36.210000 15.000000
4121 0 1 0.000000 147.570729 36.920000 15.000000
4122 0 1 0.000000 147.570729 38.340000 15.000000
4123 0 1 0.000000 148.800485 39.050000 15.000000
4124 0 1 0.000000 127.894632 0.000000 15.000000
4125 0 1 0.000000 129.124388 0.710000 15.000000
4126 0 1 0.000000 129.124388 2.130000 15.000000
4127 0 1 0.000000 130.354144 2.840000 15.000000
4128 0 1 0.000000 130.354144 4.260000 15.000000
4129 0 1 0.000000 131.583900 4.970000 15.000000
4130 0 1 0.000000 131.583900 6.390000 15.000000
4131 0 1 0.000000 132.813656 7.100000 15.000000
4132 0 1 0.000000 132.813656 8.520000 15.000000
4133 0 1 0.000000 134.043412 9.230000 15.000000
4134 0 1 0.000000 134.043412 10.650000 15.000000
4135 0 1 0.000000 135.273168 11.360000 15.000000
4136 0 1 0.000000 135.273168 12.780000 15.000000
4137 0 1 0.000000 136.502924 13.490000 15.000000
4138 0 1 0.000000 136.502924 14.910000 15.000000
4139 0 1 0.000000 137.732680 15.620000 15.000000
4140 0 1 0.000000 137.732680 17.040000 15.000000
4141 0 1 0.000000 138.962436 17.750000 15.000000
4142 0 1 0.000000 138.962436 19.170000 15.000000
4143 0 1 0.000000 140.192192 19.880000 15.000000
4144 0 1 0.000000 140.192192 21.300000 15.000000
4145 0 1 0.000000 141.421948 22.010000 15.000000
4146 0 1 0.000000 141.421948 23.430000 15.000000
4147 0 1 0.000000 142.651705 24.140000 15.000000
4148 0 1 0.000000 142.651705 25.560000 15.000000
4149 0 1 0.000000 143.881461 26.270000 15.000000
4150 0 1 0.000000 143.881461 27.690000 15.000000
4151 0 1 0.000000 145.111217 28.400000 15.000000
4152 0 1 0.000000 145.111217 29.820000 15.000000
4153 0 1 0.000000 146.340973 30.530000 15.000000
4154 0 1 0.000000 146.340973 31.950000 15.000000
4155 0 1 0.000000 147.570729 32.660000 15.000000
4156 0 1 0.000000 147.570729 34.080000 15.000000
4157 0 1 0.000000 148.800485 34.790000 15.000000
4158 0 1 0.000000 148.800485 36.210000 15.000000
4159 0 1 0.000000 130.354144 0.000000 15.000000
4160 0 1 0.000000 131.583900 0.710000 15.000000
4161 0 1 0.000000 131.583900 2.130000 15.000000
4162 0 1 0.000000 132.813656 2.840000 15.000000
4163 0 1 0.000000 132.813656 4.260000 15.000000
4164 0 1 0.000000 134.043412 4.970000 15.000000
4165 0 1 0.000000 134.043412 6.390000 15.000000
4166 0 1 0.000000 135.273168 7.100000 15.000000
4167 0 1 0.000000 135.273168 8.520000 15.000000
4168 0 1 0.000000 136.502924 9.230000 15.000000
4169 0 1 0.000000 136.502924 10.650000 15.000000
4170 0 1 0.000000 137.732680 11.360000 15.000000
4171 0 1 0.000000 137.732680 12.780000 15.000000
4172 0 1 0.000000 138.962436 13.490000 15.000000
4173 0 1 0.000000 138.962436 14.910000 15.000000
4174 0 1 0.000000 140.192192 15.620000 15.000000
4175 0 1 0.000000 140.192192 17.040000 15.000000
4176 0 1 0.000000 141.421948 17.750000 15.000000
4177 0 1 0.000000 141.421948 19.170000 15.000000
4178 0 1 0.000000 142.651705 19.880000 15.000000
4179 0 1 0.000000 142.651705 21.300000 15.000000
4180 0 1 0.000000 143.881461 22.010000 15.000000
4181 0 1 0.000000 143.881461 23.430000 15.000000
4182 0 1 0.000000 145.111217 24.140000 15.000000
4183 0 1 0.000000 145.111217 25.560000 15.000000
4184 0 1 0.000000 146.340973 26.270000 15.000000
4185 0 1 0.000000 146.340973 27.690000 15.000000
4186 0 1 0.000000 147.570729 28.400000 15.000000
4187 0 1 0.000000 147.570729 29.820000 15.000000
4188 0 1 0.000000 148.800485 30.530000 15.000000
4189 0 1 0.000000 148.800485 31.950000 15.000000
4190 0 1 0.000000 132.813656 0.000000 15.000000
4191 0 1 0.000000 134.043412 0.710000 15.000000
4192 0 1 0.000000 134.043412 2.130000 15.000000
4193 0 1 0.000000 135.273168 2.840000 15.000000
4194 0 1 0.000000 135.273168 4.260000 15.000000
4195 0 1 0.000000 136.502924 4.970000 15.000000
4196 0 1 0.000000 136.502924 6.390000 15.000000
4197 0 1 0.000000 137.732680 7.100000 15.000000
4198 0 1 0.000000 137.732680 8.520000 15.000000
4199 0 1 0.000000 138.962436 9.230000 15.000000
4200 0 1 0.000000 138.962436 10.650000 15.000000
4201 0 1 0.000000 140.192192 11.360000 15.000000
4202 0 1 0.000000 140.192192 12.780000 15.000000
4203 0 1 0.000000 141.421948 13.490000 15.000000
4204 0 1 0.000000 141.421948 14.910000 15.000000
4205 0 1 0.000000 142.651705 15.620000 15.000000
4206 0 1 0.000000 142.651705 17.040000 15.000000
4207 0 1 0.000000 143.881461 17.750000 15.000000
4208 0 1 0.000000 143.881461 19.170000 15.000000
4209 0 1 0.000000 145.111217 19.880000 15.000000
4210 0 1 0.000000 145.111217 21.300000 15.000000
4211 0 1 0.000000 146.340973 22.010000 15.000000
4212 0 1 0.000000 146.340973 23.430000 15.000000
4213 0 1 0.000000 147.570729 24.140000 15.000000
4214 0 1 0.000000 147.570729 25.560000 15.000000
4215 0 1 0.000000 148.800485 26.270000 15.000000
4216 0 1 0.000000 148.800485 27.690000 15.000000
4217 0 1 0.000000 135.273168 0.000000 15.000000
4218 0 1 0.000000 136.502924 0.710000 15.000000
4219 0 1 0.000000 136.502924 2.130000 15.000000
4220 0 1 0.000000 137.732680 2.840000 15.000000
4221 0 1 0.000000 137.732680 4.260000 15.000000
4222 0 1 0.000000 138.962436 4.970000 15.000000
4223 0 1 0.000000 138.962436 6.390000 15.000000
4224 0 1 0.000000 140.192192 7.100000 15.000000
4225 0 1 0.000000 140.192192 8.520000 15.000000
4226 0 1 0.000000 141.421948 9.230000 15.000000
4227 0 1 0.000000 141.421948 10.650000 15.000000
4228 0 1 0.000000 142.651705 11.360000 15.000000
4229 0 1 0.000000 142.651705 12.780000 15.000000
4230 0 1 0.000000 143.881461 13.490000 15.000000
4231 0 1 0.000000 143.881461 14.910000 15.000000
4232 0 1 0.000000 145.111217 15.620000 15.000000
4233 0 1 0.000000 145.111217 17.040000 15.000000
4234 0 1 0.000000 146.340973 17.750000 15.000000
4235 0 1 0.000000 146.340973 19.170000 15.000000
4236 0 1 0.000000 147.570729 19.880000 15.000000
4237 0 1 0.000000 147.570729 21.300000 15.000000
4238 0 1 0.000000 148.800485 22.010000 15.000000
4239 0 1 0.000000 148.800485 23.430000 15.000000
4240 0 1 0.000000 137.732680 0.000000 15.000000
4241 0 1 0.000000 138.962436 0.710000 15.000000
4242 0 1 0.000000 138.962436 2.130000 15.000000
4243 0 1 0.000000 140.192192 2.840000 15.000000
4244 0 1 0.000000 140.192192 4.260000 15.000000
4245 0 1 0.000000 141.421948 4.970000 15.000000
4246 0 1 0.000000 141.421948 6.390000 15.000000
4247 0 1 0.000000 142.651705 7.100000 15.000000
4248 0 1 0.000000 142.651705 8.520000 15.000000
4249 0 1 0.000000 143.881461 9.230000 15.000000
4250 0 1 0.000000 143.881461 10.650000 15.000000
4251 0 1 0.000000 145.111217 11.360000 15.000000
4252 0 1 0.000000 145.111217 12.780000 15.000000
4253 0 1 0.000000 146.340973 13.490000 15.000000
4254 0 1 0.000000 146.340973 14.910000 15.000000
4255 0 1 0.000000 147.570729 15.620000 15.000000
4256 0 1 0.000000 147.570729 17.040000 15.000000
4257 0 1 0.000000 148.800485 17.750000 15.000000
4258 0 1 0.000000 148.800485 19.170000 15.000000
4259 0 1 0.000000 140.192192 0.000000 15.000000
4260 0 1 0.000000 141.421948 0.710000 15.000000
4261 0 1 0.000000 141.421948 2.130000 15.000000
4262 0 1 0.000000 142.651705 2.840000 15.000000
4263 0 1 0.000000 142.651705 4.260000 15.000000
4264 0 1 0.000000 143.881461 4.970000 15.000000
4265 0 1 0.000000 143.881461 6.390000 15.000000
4266 0 1 0.000000 145.111217 7.100000 15.000000
4267 0 1 0.000000 145.111217 8.520000 15.000000
4268 0 1 0.000000 146.340973 9.230000 15.000000
4269 0 1 0.000000 146.340973 10.650000 15.000000
4270 0 1 0.000000 147.570729 11.360000 15.000000
4271 0 1 0.000000 147.570729 12.780000 15.000000
4272 0 1 0.000000 148.800485 13.490000 15.000000
4273 0 1 0.000000 148.800485 14.910000 15.000000
4274 0 1 0.000000 142.651705 0.000000 15.000000
4275 0 1 0.000000 143.881461 0.710000 15.000000
4276 0 1 0.000000 143.881461 2.130000 15.000000
4277 0 1 0.000000 145.111217 2.840000 15.000000
4278 0 1 0.000000 145.111217 4.260000 15.000000
4279 0 1 0.000000 146.340973 4.970000 15.000000
4280 0 1 0.000000 146.340973 6.390000 15.000000
4281 0 1 0.000000 147.570729 7.100000 15.000000
4282 0 1 0.000000 147.570729 8.520000 15.000000
4283 0 1 0.000000 148.800485 9.230000 15.000000
4284 0 1 0.000000 148.800485 10.650000 15.000000
4285 0 1 0.000000 145.111217 0.000000 15.000000
4286 0 1 0.000000 146.340973 0.710000 15.000000
4287 0 1 0.000000 146.340973 2.130000 15.000000
4288 0 1 0.000000 147.570729 2.840000 15.000000
4289 0 1 0.000000 147.570729 4.260000 15.000000
4290 0 1 0.000000 148.800485 4.970000 15.000000
4291 0 1 0.000000 148.800485 6.390000 15.000000
4292 0 1 0.000000 147.570729 0.000000 15.000000
4293 0 1 0.000000 148.800485 0.710000 15.000000
4294 0 1 0.000000 148.800485 2.130000 15.000000
4295 1 2 -0.834000 70.590420 38.600935 11.842323
4296 1 3 0.417000 71.515142 38.847313 11.862800
4297 1 3 0.417000 70.238359 38.920907 12.672927
4298 2 2 -0.834000 56.295635 12.769560 8.329465
4299 2 3 0.417000 56.516868 13.257357 7.536154
4300 2 3 0.417000 56.905962 13.096628 8.990343
4301 3 2 -0.834000 73.526197 24.278586 8.293596
4302 3 3 0.417000 72.709902 24.778178 8.310975
4303 3 3 0.417000 73.252847 23.378263 8.117728
4304 4 2 -0.834000 139.921611 1.502670 8.189318
4305 4 3 0.417000 139.100097 1.845882 8.540819
4306 4 3 0.417000 140.452384 2.280358 8.016943
4307 5 2 -0.834000 12.926109 9.927203 8.200643
4308 5 3 0.417000 12.158170 9.413811 7.949786
4309 5 3 0.417000 12.931090 10.665105 7.590965
4310 6 2 -0.834000 21.638003 15.636818 11.825811
4311 6 3 0.417000 20.809058 15.171842 11.712320
4312 6 3 0.417000 21.382976 16.522173 12.085311
4313 7 2 -0.834000 128.427519 21.481671 8.341335
4314 7 3 0.417000 128.730706 20.573807 8.331702
4315 7 3 0.417000 127.901317 21.567406 7.546356
4316 8 2 -0.834000 96.646832 35.752846 8.206355
4317 8 3 0.417000 96.987800 34.861417 8.279343
4318 8 3 0.417000 96.257685 35.931782 9.062380
4319 9 2 -0.834000 39.025758 4.355225 11.778421
4320 9 3 0.417000 38.850498 3.683022 12.436948
4321 9 3 0.417000 38.185797 4.484473 11.337974
4322 10 2 -0.834000 61.957832 27.159107 8.222424
4323 10 3 0.417000 62.423974 27.541756 8.965743
4324 10 3 0.417000 62.623503 26.653268 7.756333
4325 11 2 -0.834000 85.036316 21.424249 11.775358
4326 11 3 0.417000 84.711575 20.558676 11.527248
4327 11 3 0.417000 85.114735 21.897631 10.947112
4328 12 2 -0.834000 7.286681 32.833877 8.189418
4329 12 3 0.417000 7.354374 33.713106 8.561717
4330 12 3 0.417000 7.125126 32.266013 8.942852
4331 13 2 -0.834000 15.832251 27.210998 8.234640
4332 13 3 0.417000 15.403762 28.032107 8.476322
4333 13 3 0.417000 15.763887 26.665024 9.017883
4334 14 2 -0.834000 27.415680 30.060598 8.326856
4335 14 3 0.417000 27.757877 29.511793 9.032509
4336 14 3 0.417000 27.906397 30.879182 8.399987
4337 15 2 -0.834000 36.052174 9.906345 8.301089
4338 15 3 0.417000 36.247946 9.893603 7.364210
4339 15 3 0.417000 36.093291 10.831744 8.542288
4340 16 2 -0.834000 4.259226 30.016268 11.828938
4341 16 3 0.417000 3.766284 30.215098 12.624995
4342 16 3 0.417000 4.525485 30.871576 11.491618
4343 17 2 -0.834000 122.617903 7.215553 11.734865
4344 17 3 0.417000 123.088163 7.657210 12.441991
4345 17 3 0.417000 123.235567 7.208494 11.003652
4346 18 2 -0.834000 24.441388 24.271208 8.316303
4347 18 3 0.417000 24.791380 24.978303 8.858293
4348 18 3 0.417000 23.522922 24.201397 8.576646
4349 19 2 -0.834000 96.585942 4.377299 11.679477
4350 19 3 0.417000 96.695546 3.917988 10.846860
4351 19 3 0.417000 96.922625 3.767559 12.336055
4352 20 2 -0.834000 111.097134 32.916851 8.197936
4353 20 3 0.417000 111.404839 32.014423 8.113238
4354 20 3 0.417000 111.350813 33.174726 9.084152
4355 21 2 -0.834000 125.529500 1.511770 11.716046
4356 21 3 0.417000 126.036162 1.007082 12.352298
4357 21 3 0.417000 125.295779 0.877685 11.038150
4358 22 2 -0.834000 64.856151 24.247936 8.251288
4359 22 3 0.417000 64.916084 23.450146 8.776808
4360 22 3 0.417000 65.689940 24.290071 7.783044
4361 23 2 -0.834000 131.327261 32.823894 11.841405
4362 23 3 0.417000 132.015751 32.369598 12.327027
4363 23 3 0.417000 131.797670 33.360485 11.203427
4364 24 2 -0.834000 119.766575 4.299601 8.286469
4365 24 3 0.417000 118.851642 4.409110 8.545578
4366 24 3 0.417000 119.853846 3.364125 8.103439
4367 25 2 -0.834000 90.958288 7.068481 11.747810
4368 25 3 0.417000 90.417425 7.134054 12.534829
4369 25 3 0.417000 91.632742 7.737749 11.863672
4370 26 2 -0.834000 38.906986 15.800128 11.752586
4371 26 3 0.417000 38.595425 15.238794 11.042609
4372 26 3 0.417000 39.748113 15.420668 12.007042
4373 27 2 -0.834000 1.410201 24.206594 11.826237
4374 27 3 0.417000 1.067776 23.712562 11.081314
4375 27 3 0.417000 2.261825 23.808732 12.007000
4376 28 2 -0.834000 47.521379 18.576413 11.814436
4377 28 3 0.417000 47.646876 18.917925 10.929082
4378 28 3 0.417000 46.948680 19.215101 12.239084
4379 29 2 -0.834000 56.283851 10.066438 11.767049
4380 29 3 0.417000 56.374901 10.947088 12.130913
4381 29 3 0.417000 57.164860 9.695143 11.813906
4382 30 2 -0.834000 145.721702 35.730378 8.244034
4383 30 3 0.417000 145.949880 36.447292 7.652255
4384 30 3 0.417000 144.827288 35.492773 7.999496
4385 31 2 -0.834000 108.230249 29.964387 11.685544
4386 31 3 0.417000 108.637820 30.791837 11.429724
4387 31 3 0.417000 107.667474 30.192708 12.425399
4388 32 2 -0.834000 38.865616 18.490038 8.290543
4389 32 3 0.417000 38.056860 18.194150 7.872696
4390 32 3 0.417000 39.563995 18.121242 7.749722
4391 33 2 -0.834000 70.626726 32.939479 11.680598
4392 33 3 0.417000 70.814710 33.778636 12.100965
4393 33 3 0.417000 70.950643 32.283803 12.298174
4394 34 2 -0.834000 64.904890 10.060315 8.292211
4395 34 3 0.417000 65.819094 10.331726 8.374666
4396 34 3 0.417000 64.402108 10.859145 8.451308
4397 35 2 -0.834000 90.769934 18.622971 8.340683
4398 35 3 0.417000 89.878531 18.850441 8.076315
4399 35 3 0.417000 91.259958 19.441412 8.261540
4400 36 2 -0.834000 7.157838 30.066334 8.263945
4401 36 3 0.417000 6.914847 29.966858 9.184430
4402 36 3 0.417000 7.189861 31.012874 8.125131
4403 37 2 -0.834000 145.619370 4.381354 8.333216
4404 37 3 0.417000 146.173818 4.446211 7.555648
4405 37 3 0.417000 145.747599 3.485614 8.645366
4406 38 2 -0.834000 125.540318 24.186159 11.783208
4407 38 3 0.417000 125.227718 24.022267 12.672957
4408 38 3 0.417000 126.469933 23.959587 11.809900
4409 39 2 -0.834000 148.546838 7.096011 8.320433
4410 39 3 0.417000 149.041197 7.574133 7.654671
4411 39 3 0.417000 148.899450 7.410260 9.152986
4412 40 2 -0.834000 27.337703 9.924698 11.770458
4413 40 3 0.417000 27.643084 10.744812 11.382660
4414 40 3 0.417000 27.099625 9.378877 11.021039
4415 41 2 -0.834000 139.930521 7.198875 8.208252
4416 41 3 0.417000 139.289876 7.293948 8.913069
4417 41 3 0.417000 140.617601 7.830221 8.421688
4418 42 2 -0.834000 33.205264 15.760924 8.342982
4419 42 3 0.417000 33.402889 15.864004 9.273869
4420 42 3 0.417000 33.281025 16.644329 7.982305
4421 43 2 -0.834000 148.656295 1.479556 11.707952
4422 43 3 0.417000 148.294432 0.766932 11.181213
4423 43 3 0.417000 148.073427 1.538347 12.464946
4424 44 2 -0.834000 125.468904 7.095089 11.725852
4425 44 3 0.417000 126.070696 7.798223 11.481555
4426 44 3 0.417000 125.961395 6.564433 12.352021
4427 45 2 -0.834000 76.373603 35.754531 8.181313
4428 45 3 0.417000 75.575540 35.277579 8.409006
4429 45 3 0.417000 77.071069 35.289921 8.643818
4430 46 2 -0.834000 102.495700 24.326084 8.159465
4431 46 3 0.417000 103.157553 23.913672 7.604399
4432 46 3 0.417000 101.851965 23.635790 8.318624
4433 47 2 -0.834000 128.431380 38.589842 8.309068
4434 47 3 0.417000 127.747123 38.131434 8.796803
4435 47 3 0.417000 128.002325 39.378659 7.977537
4436 48 2 -0.834000 79.347618 35.641799 8.306900
4437 48 3 0.417000 79.767912 36.476132 8.515404
4438 48 3 0.417000 80.005950 34.981077 8.522020
4439 49 2 -0.834000 33.138225 24.226910 8.262770
4440 49 3 0.417000 33.234562 23.489651 7.659943
4441 49 3 0.417000 32.511442 23.920668 8.918202
4442 50 2 -0.834000 21.726987 4.204286 8.294009
4443 50 3 0.417000 21.990751 4.512747 9.160907
4444 50 3 0.417000 21.704583 3.250791 8.375113
4445 51 2 -0.834000 59.099455 30.077842 11.657673
4446 51 3 0.417000 59.001076 29.153373 11.429835
4447 51 3 0.417000 60.036087 30.250303 11.561710
4448 52 2 -0.834000 10.069357 7.123760 11.791814
4449 52 3 0.417000 9.663943 7.944905 11.513258
4450 52 3 0.417000 10.632211 7.370811 12.525567
4451 53 2 -0.834000 44.645261 10.050838 8.167484
4452 53 3 0.417000 45.172901 10.616001 8.731770
4453 53 3 0.417000 43.782612 10.035854 8.582027
4454 54 2 -0.834000 131.258541 10.073561 11.769526
4455 54 3 0.417000 131.612392 9.507966 12.455911
4456 54 3 0.417000 130.591694 10.599016 12.211616
4457 55 2 -0.834000 148.588690 32.904599 11.711501
4458 55 3 0.417000 149.226462 33.239811 12.341669
4459 55 3 0.417000 148.770046 33.388709 10.905908
4460 56 2 -0.834000 41.810091 38.586948 11.723424
4461 56 3 0.417000 42.339711 38.147891 12.388979
4462 56 3 0.417000 42.148224 38.256429 10.891165
4463 57 2 -0.834000 145.635696 30.096424 11.650377
4464 57 3 0.417000 145.683705 30.096710 12.606372
4465 57 3 0.417000 145.014978 29.398357 11.441467
4466 58 2 -0.834000 21.590125 35.645129 11.733672
4467 58 3 0.417000 21.122338 36.438767 11.473775
4468 58 3 0.417000 21.372256 35.005307 11.055887
4469 59 2 -0.834000 105.364138 12.883250 8.337152
4470 59 3 0.417000 104.538929 13.347210 8.478584
4471 59 3 0.417000 105.670432 13.192760 7.484733
4472 60 2 -0.834000 79.245227 7.239915 11.817089
4473 60 3 0.417000 79.509960 7.535749 12.688083
4474 60 3 0.417000 78.294239 7.147058 11.873935
4475 61 2 -0.834000 148.634829 24.276112 8.170412
4476 61 3 0.417000 149.565734 24.199286 8.379568
4477 61 3 0.417000 148.568826 23.987910 7.260019
4478 62 2 -0.834000 13.025607 9.919983 11.848229
4479 62 3 0.417000 13.690443 9.604455 12.460328
4480 62 3 0.417000 13.399695 9.756656 10.982426
4481 63 2 -0.834000 79.256419 4.281581 8.240885
4482 63 3 0.417000 78.308220 4.343140 8.356475
4483 63 3 0.417000 79.565729 3.834718 9.028839
4484 64 2 -0.834000 148.485522 15.644180 8.237896
4485 64 3 0.417000 149.198144 15.005503 8.260099
4486 64 3 0.417000 147.713298 15.151905 8.516407
4487 65 2 -0.834000 87.946651 1.436328 8.264979
4488 65 3 0.417000 88.154496 2.361999 8.392118
4489 65 3 0.417000 88.117061 1.277418 7.336572
4490 66 2 -0.834000 38.988600 32.880489 8.242743
4491 66 3 0.417000 39.307758 32.768341 9.138172
4492 66 3 0.417000 38.140395 33.312690 8.342657
4493 67 2 -0.834000 87.992643 4.320813 8.201706
4494 67 3 0.417000 88.024807 4.318120 9.158361
4495 67 3 0.417000 88.878764 4.562751 7.932471
4496 68 2 -0.834000 139.950615 32.892316 11.780311
4497 68 3 0.417000 139.181315 32.331085 11.683207
4498 68 3 0.417000 140.541222 32.613103 11.080700
4499 69 2 -0.834000 73.511082 38.532682 11.783601
4500 69 3 0.417000 73.089214 39.366031 11.574339
4501 69 3 0.417000 73.060827 37.891121 11.234144
4502 70 2 -0.834000 73.468689 29.966112 8.226601
4503 70 3 0.417000 74.386965 30.141125 8.020759
4504 70 3 0.417000 73.499618 29.386295 8.987580
4505 71 2 -0.834000 24.444544 10.026356 8.347176
4506 71 3 0.417000 24.788775 10.901213 8.527065
4507 71 3 0.417000 24.123203 10.075344 7.446858
4508 72 2 -0.834000 142.873115 38.484914 11.756735
4509 72 3 0.417000 143.543800 38.417883 11.077088
4510 72 3 0.417000 142.583687 37.583525 11.898017
4511 73 2 -0.834000 139.871942 4.381977 11.779277
4512 73 3 0.417000 139.900154 5.330096 11.650802
4513 73 3 0.417000 140.628040 4.051462 11.294192
4514 74 2 -0.834000 114.002932 27.048711 8.262749
4515 74 3 0.417000 114.050335 26.154301 7.925086
4516 74 3 0.417000 113.157070 27.092369 8.708667
4517 75 2 -0.834000 82.158244 18.549385 11.746579
4518 75 3 0.417000 82.474322 18.391751 12.636229
4519 75 3 0.417000 81.948769 19.483203 11.728252
4520 76 2 -0.834000 30.321817 38.549629 8.315509
4521 76 3 0.417000 31.234838 38.262184 8.314989
4522 76 3 0.417000 30.014702 38.374904 7.425912
4523 77 2 -0.834000 67.760681 38.520840 11.747658
4524 77 3 0.417000 68.559188 39.003722 11.534483
4525 77 3 0.417000 67.072177 39.185798 11.752519
4526 78 2 -0.834000 18.826665 18.665760 11.673339
4527 78 3 0.417000 18.096708 19.282827 11.724545
4528 78 3 0.417000 18.454995 17.888421 11.256403
4529 79 2 -0.834000 73.490439 21.343707 8.179565
4530 79 3 0.417000 73.637848 21.002063 9.061484
4531 79 3 0.417000 74.326287 21.217507 7.730496
4532 80 2 -0.834000 134.212285 12.900202 8.307249
4533 80 3 0.417000 134.205629 13.034052 7.359477
4534 80 3 0.417000 134.496418 11.993066 8.419518
4535 81 2 -0.834000 148.610412 9.965369 11.730229
4536 81 3 0.417000 148.017741 10.005779 12.480789
4537 81 3 0.417000 148.939088 9.066369 11.732106
4538 82 2 -0.834000 79.296388 30.004353 8.166227
4539 82 3 0.417000 79.843227 29.916235 8.946890
4540 82 3 0.417000 78.419703 30.183312 8.506270
4541 83 2 -0.834000 125.485446 27.131249 11.764878
4542 83 3 0.417000 125.077074 26.373596 12.183717
4543 83 3 0.417000 125.564634 27.778920 12.465223
4544 84 2 -0.834000 114.026564 35.801910 11.731916
4545 84 3 0.417000 113.556349 35.172969 12.279239
4546 84 3 0.417000 114.822727 36.000739 12.224687
4547 85 2 -0.834000 131.168979 32.951675 8.182682
4548 85 3 0.417000 130.311574 32.663641 8.495931
4549 85 3 0.417000 131.566986 32.163196 7.813734
4550 86 2 -0.834000 108.255370 27.066503 8.239634
4551 86 3 0.417000 107.994456 27.535650 7.447133
4552 86 3 0.417000 108.075913 27.680255 8.951909
4553 87 2 -0.834000 4.285308 21.381327 11.752852
4554 87 3 0.417000 4.350378 21.647348 12.670038
4555 87 3 0.417000 3.353132 21.210757 11.618000
4556 88 2 -0.834000 134.139487 1.485079 11.756499
4557 88 3 0.417000 134.902969 1.124672 12.207536
4558 88 3 0.417000 134.174912 2.424299 11.937725
4559 89 2 -0.834000 18.842503 4.320154 11.759303
4560 89 3 0.417000 19.056331 3.459256 11.399631
4561 89 3 0.417000 17.927143 4.460752 11.517266
4562 90 2 -0.834000 67.856269 27.232874 8.189582
4563 90 3 0.417000 68.555922 27.044643 7.564052
4564 90 3 0.417000 67.149417 26.635132 7.946073
4565 91 2 -0.834000 137.105020 21.507842 8.269080
4566 91 3 0.417000 136.822510 20.936939 7.554595
4567 91 3 0.417000 138.059725 21.438785 8.268277
4568 92 2 -0.834000 99.526380 15.707220 11.795724
4569 92 3 0.417000 99.818176 16.071978 12.631211
4570 92 3 0.417000 98.605518 15.960515 11.731804
4571 93 2 -0.834000 145.692178 15.727810 11.829705
4572 93 3 0.417000 144.935355 15.174265 12.022162
4573 93 3 0.417000 145.921437 15.514835 10.925098
4574 94 2 -0.834000 102.482865 7.242160 11.733832
4575 94 3 0.417000 102.574473 7.084408 10.794176
4576 94 3 0.417000 103.374683 7.413249 12.036521
4577 95 2 -0.834000 62.061439 21.345876 11.848601
4578 95 3 0.417000 61.903831 20.688319 12.526105
4579 95 3 0.417000 62.073682 20.849264 11.030397
4580 96 2 -0.834000 93.751157 15.685654 8.289199
4581 96 3 0.417000 94.121275 15.110030 8.958454
4582 96 3 0.417000 92.810055 15.513254 8.318137
4583 97 2 -0.834000 67.773909 27.155596 11.754242
4584 97 3 0.417000 66.919216 27.577292 11.843142
4585 97 3 0.417000 68.354208 27.668398 12.316841
4586 98 2 -0.834000 131.298062 4.275228 11.660309
4587 98 3 0.417000 131.100602 4.840820 10.913752
4588 98 3 0.417000 131.817335 3.561495 11.289941
4589 99 2 -0.834000 4.411042 7.217117 8.228314
4590 99 3 0.417000 4.217946 7.025025 7.310683
4591 99 3 0.417000 4.087322 8.108203 8.360235
4592 100 2 -0.834000 59.167076 24.320957 8.280015
4593 100 3 0.417000 58.217546 24.356406 8.395637
4594 100 3 0.417000 59.497098 23.975429 9.109429
4595 101 2 -0.834000 82.259722 21.353649 8.205105
4596 101 3 0.417000 81.437261 21.732918 8.514852
4597 101 3 0.417000 82.000001 20.544465 7.764654
4598 102 2 -0.834000 119.735341 15.781737 8.290643
4599 102 3 0.417000 120.596803 15.410155 8.100796
4600 102 3 0.417000 119.742311 15.933235 9.235752
4601 103 2 -0.834000 110.993552 9.948064 11.782086
4602 103 3 0.417000 111.423991 9.461433 11.079133
4603 103 3 0.417000 111.189864 10.865795 11.593767
4604 104 2 -0.834000 1.509134 15.726176 11.737701
4605 104 3 0.417000 0.840800 15.966603 12.379383
4606 104 3 0.417000 1.035578 15.223700 11.074757
4607 105 2 -0.834000 110.990803 7.063092 11.711682
4608 105 3 0.417000 110.104103 6.916436 12.041055
4609 105 3 0.417000 110.964359 7.942499 11.334621
4610 106 2 -0.834000 139.946317 29.933831 11.736064
4611 106 3 0.417000 140.776166 30.084697 11.283490
4612 106 3 0.417000 140.197045 29.744228 12.640176
4613 107 2 -0.834000 47.613843 15.769041 11.750982
4614 107 3 0.417000 47.895441 16.668938 11.915666
4615 107 3 0.417000 46.658207 15.817464 11.725560
4616 108 2 -0.834000 18.729369 10.053488 8.261326
4617 108 3 0.417000 19.032953 10.769650 7.703491
4618 108 3 0.417000 18.542973 9.338115 7.653272
4619 109 2 -0.834000 59.099828 4.311738 11.842553
4620 109 3 0.417000 59.504155 5.023048 12.339332
4621 109 3 0.417000 59.023046 4.654347 10.952072
4622 110 2 -0.834000 93.664990 15.690599 11.770792
4623 110 3 0.417000 94.167932 15.297363 11.057597
4624 110 3 0.417000 94.210604 16.414332 12.078603
4625 111 2 -0.834000 15.947846 24.265701 8.188752
4626 111 3 0.417000 15.255285 24.044517 7.566121
4627 111 3 0.417000 15.482095 24.520687 8.985175
4628 112 2 -0.834000 85.030795 4.279278 11.718683
4629 112 3 0.417000 85.084989 4.083769 10.783231
4630 112 3 0.417000 85.833738 4.764185 11.909421
4631 113 2 -0.834000 10.006265 9.950096 8.342197
4632 113 3 0.417000 9.767571 10.093381 7.426377
4633 113 3 0.417000 9.884128 10.803395 8.758363
4634 114 2 -0.834000 44.694334 21.412535 11.695110
4635 114 3 0.417000 45.363302 21.676734 12.326705
4636 114 3 0.417000 44.528313 20.490807 11.892811
4637 115 2 -0.834000 136.996757 18.583049 8.187104
4638 115 3 0.417000 136.403168 18.343928 8.898937
4639 115 3 0.417000 137.589397 17.835604 8.107505
4640 116 2 -0.834000 76.460107 12.925571 11.738802
4641 116 3 0.417000 76.994303 12.296676 11.253665
4642 116 3 0.417000 75.574027 12.565197 11.703786
4643 117 2 -0.834000 4.266845 24.254649 11.841908
4644 117 3 0.417000 3.772605 23.951774 11.080183
4645 117 3 0.417000 3.624143 24.278946 12.550834
4646 118 2 -0.834000 85.115906 32.923723 11.825988
4647 118 3 0.417000 84.766263 32.475021 12.595825
4648 118 3 0.417000 84.959754 32.316474 11.102734
4649 119 2 -0.834000 96.646624 27.176983 8.231106
4650 119 3 0.417000 96.131594 27.192825 7.424431
4651 119 3 0.417000 96.625458 26.261993 8.511420
4652 120 2 -0.834000 1.412002 18.566845 11.728283
4653 120 3 0.417000 1.580960 19.426887 11.343558
4654 120 3 0.417000 0.488050 18.592542 11.977050
4655 121 2 -0.834000 137.031080 1.526022 8.310021
4656 121 3 0.417000 137.289577 1.575185 9.230344
4657 121 3 0.417000 137.193873 2.404984 7.967740
4658 122 2 -0.834000 33.252513 32.809455 8.214655
4659 122 3 0.417000 33.636997 33.012698 7.361955
4660 122 3 0.417000 32.362676 32.519543 8.013723
4661 123 2 -0.834000 15.958222 29.977049 11.761916
4662 123 3 0.417000 15.332601 30.363864 12.374456
4663 123 3 0.417000 15.547843 30.079254 10.903210
4664 124 2 -0.834000 61.927011 7.221602 8.306247
4665 124 3 0.417000 61.383731 8.001269 8.421128
4666 124 3 0.417000 62.732412 7.417650 8.784918
4667 125 2 -0.834000 99.576651 12.781906 8.178749
4668 125 3 0.417000 100.451758 12.577530 8.508372
4669 125 3 0.417000 99.008178 12.128089 8.585682
4670 126 2 -0.834000 30.271062 10.075814 11.664323
4671 126 3 0.417000 31.109874 10.482854 11.880993
4672 126 3 0.417000 30.155484 10.247142 10.729700
4673 127 2 -0.834000 59.048075 18.621767 8.306952
4674 127 3 0.417000 59.290414 17.891949 8.876926
4675 127 3 0.417000 59.852929 18.834998 7.834750
4676 128 2 -0.834000 30.290772 21.425345 8.184014
4677 128 3 0.417000 29.949038 22.251732 8.525385
4678 128 3 0.417000 30.859999 21.682395 7.458660
4679 129 2 -0.834000 87.917704 9.929531 8.201322
4680 129 3 0.417000 87.950266 9.249519 8.874193
4681 129 3 0.417000 88.827868 10.038030 7.925530
4682 130 2 -0.834000 88.053008 10.017225 11.772604
4683 130 3 0.417000 88.787020 10.336071 12.297768
4684 130 3 0.417000 88.144960 9.064534 11.785079
4685 131 2 -0.834000 70.736462 4.311786 8.206770
4686 131 3 0.417000 71.677026 4.488983 8.193666
4687 131 3 0.417000 70.593410 3.720095 7.468075
4688 132 2 -0.834000 113.880322 1.400880 11.714066
4689 132 3 0.417000 114.104095 2.311790 11.523278
4690 132 3 0.417000 114.660168 0.904927 11.464862
4691 133 2 -0.834000 87.904998 27.106860 11.699187
4692 133 3 0.417000 87.014964 27.358888 11.945264
4693 133 3 0.417000 87.893825 27.090328 10.742195
4694 134 2 -0.834000 145.739241 12.789872 11.752132
4695 134 3 0.417000 145.890229 13.185943 10.893900
4696 134 3 0.417000 145.944112 11.863111 11.628139
4697 135 2 -0.834000 4.379882 18.531501 8.187399
4698 135 3 0.417000 3.480877 18.313612 8.433461
4699 135 3 0.417000 4.908991 18.242131 8.930730
4700 136 2 -0.834000 90.889019 32.838416 11.748078
4701 136 3 0.417000 91.440891 33.552441 12.067197
4702 136 3 0.417000 90.031025 33.240491 11.612377
4703 137 2 -0.834000 125.399106 4.384494 11.693401
4704 137 3 0.417000 125.504954 3.481852 11.392961
4705 137 3 0.417000 126.085422 4.500781 12.350424
4706 138 2 -0.834000 148.611324 12.954410 11.712419
4707 138 3 0.417000 147.788489 12.647251 12.092980
4708 138 3 0.417000 149.284393 12.417611 12.130818
4709 139 2 -0.834000 4.426322 18.540186 11.745606
4710 139 3 0.417000 4.840722 18.097224 12.486072
4711 139 3 0.417000 4.022424 17.835135 11.239640
4712 140 2 -0.834000 105.284072 18.539782 11.704540
4713 140 3 0.417000 104.378656 18.840744 11.781196
4714 140 3 0.417000 105.503171 18.670626 10.781985
4715 141 2 -0.834000 38.876640 35.776614 11.704200
4716 141 3 0.417000 38.910341 36.664021 11.346981
4717 141 3 0.417000 39.535432 35.772263 12.398611
4718 142 2 -0.834000 93.729525 18.549390 8.280621
4719 142 3 0.417000 94.678141 18.437942 8.217857
4720 142 3 0.417000 93.503608 18.201759 9.143376
4721 143 2 -0.834000 41.758296 1.495812 11.678613
4722 143 3 0.417000 42.007124 0.571696 11.696657
4723 143 3 0.417000 40.804154 1.485997 11.602796
4724 144 2 -0.834000 102.433599 1.503711 11.706994
4725 144 3 0.417000 101.836143 2.234152 11.546577
4726 144 3 0.417000 103.205435 1.704269 11.177580
4727 145 2 -0.834000 125.436950 38.632332 11.784571
4728 145 3 0.417000 125.448344 38.023740 12.523299
4729 145 3 0.417000 124.571602 38.517060 11.391992
4730 146 2 -0.834000 53.297204 29.936700 8.335560
4731 146 3 0.417000 52.591528 29.348427 8.066880
4732 146 3 0.417000 53.462760 30.480375 7.565339
4733 147 2 -0.834000 108.245165 18.578560 8.307426
4734 147 3 0.417000 107.417068 18.112465 8.192354
4735 147 3 0.417000 108.270107 18.797104 9.239010
4736 148 2 -0.834000 7.191174 7.044975 8.207070
4737 148 3 0.417000 7.755997 7.632451 7.704996
4738 148 3 0.417000 6.438933 7.584765 8.449955
4739 149 2 -0.834000 70.618413 15.773760 11.681068
4740 149 3 0.417000 70.339858 16.247995 12.464484
4741 149 3 0.417000 71.201031 16.382272 11.226645
4742 150 2 -0.834000 15.845810 21.524229 8.205565
4743 150 3 0.417000 14.917222 21.320108 8.316430
4744 150 3 0.417000 16.262323 20.675016 8.058645
4745 151 2 -0.834000 102.431670 32.894119 8.333319
4746 151 3 0.417000 102.550562 32.817615 9.280020
4747 151 3 0.417000 103.306423 33.087967 7.996479
4748 152 2 -0.834000 105.380954 38.658257 8.266128
4749 152 3 0.417000 105.301489 39.511541 8.692536
4750 152 3 0.417000 106.013679 38.799855 7.561968
4751 153 2 -0.834000 79.420563 15.627759 11.655888
4752 153 3 0.417000 80.219330 15.978820 11.262239
4753 153 3 0.417000 79.050852 16.362910 12.144864
4754 154 2 -0.834000 137.064908 24.308192 11.728628
4755 154 3 0.417000 137.353989 23.585099 12.285225
4756 154 3 0.417000 136.109604 24.287495 11.785183
4757 155 2 -0.834000 111.093060 15.756998 8.280604
4758 155 3 0.417000 111.016520 14.884036 7.895493
4759 155 3 0.417000 110.211346 16.124493 8.219304
4760 156 2 -0.834000 18.740727 32.849056 8.193790
4761 156 3 0.417000 18.600059 33.787462 8.319647
4762 156 3 0.417000 18.104599 32.598769 7.523768
4763 157 2 -0.834000 41.853660 7.113631 8.153502
4764 157 3 0.417000 42.474553 6.513043 7.741169
4765 157 3 0.417000 41.469064 6.607291 8.869001
4766 158 2 -0.834000 44.797714 38.588021 8.275767
4767 158 3 0.417000 43.875293 38.373787 8.136218
4768 158 3 0.417000 44.782098 39.424006 8.741727
4769 159 2 -0.834000 38.991996 9.954235 11.727338
4770 159 3 0.417000 38.970451 9.023567 11.504573
4771 159 3 0.417000 39.649783 10.326433 11.139957
4772 160 2 -0.834000 50.579226 29.950011 11.725648
4773 160 3 0.417000 50.071014 30.253686 10.973495
4774 160 3 0.417000 51.455670 29.791656 11.374932
4775 161 2 -0.834000 27.486620 4.237500 11.678473
4776 161 3 0.417000 27.039946 3.571837 11.155398
4777 161 3 0.417000 28.191406 3.763130 12.119474
4778 162 2 -0.834000 131.184661 1.365104 11.694663
4779 162 3 0.417000 130.999343 0.744615 12.399562
4780 162 3 0.417000 130.591942 2.098611 11.858623
4781 163 2 -0.834000 125.383354 12.764871 8.285147
4782 163 3 0.417000 126.130298 13.010140 8.831178
4783 163 3 0.417000 125.619997 11.910344 7.924570
4784 164 2 -0.834000 85.141669 4.330850 8.249361
4785 164 3 0.417000 84.347418 3.905209 7.926519
4786 164 3 0.417000 85.112609 5.210387 7.872796
4787 165 2 -0.834000 21.630766 15.778614 8.279902
4788 165 3 0.417000 21.793354 16.422758 8.969014
4789 165 3 0.417000 20.677052 15.709985 8.235722
4790 166 2 -0.834000 15.918350 24.365053 11.763101
4791 166 3 0.417000 15.142497 24.315227 12.321492
4792 166 3 0.417000 16.632373 24.046662 12.315396
4793 167 2 -0.834000 70.700020 1.519915 8.273976
4794 167 3 0.417000 70.541252 1.747494 7.357880
4795 167 3 0.417000 69.961210 1.901995 8.747691
4796 168 2 -0.834000 110.997425 30.023677 11.698209
4797 168 3 0.417000 110.997966 29.882899 10.751418
4798 168 3 0.417000 111.556499 30.789850 11.827232
4799 169 2 -0.834000 13.048957 1.528103 11.814406
4800 169 3 0.417000 13.469967 2.269543 12.249435
4801 169 3 0.417000 12.154874 1.825179 11.645309
4802 170 2 -0.834000 131.248063 12.844690 8.322389
4803 170 3 0.417000 130.796316 12.642610 7.503048
4804 170 3 0.417000 131.271173 13.801084 8.354132
4805 171 2 -0.834000 102.328436 1.467413 8.193315
4806 171 3 0.417000 102.678243 1.733360 9.043690
4807 171 3 0.417000 101.489247 1.054714 8.397454
4808 172 2 -0.834000 56.173833 7.220645 11.675337
4809 172 3 0.417000 56.144857 8.142774 11.420248
4810 172 3 0.417000 55.684184 6.766458 10.989633
4811 173 2 -0.834000 30.251319 15.706939 8.199271
4812 173 3 0.417000 29.639369 15.677968 7.463806
4813 173 3 0.417000 31.081303 15.982531 7.810159
4814 174 2 -0.834000 76.508588 32.955056 11.657477
4815 174 3 0.417000 75.868677 33.474747 12.143963
4816 174 3 0.417000 77.088803 32.598034 12.329873
4817 175 2 -0.834000 82.290897 4.270784 11.777805
4818 175 3 0.417000 81.672726 3.562091 11.599338
4819 175 3 0.417000 83.151337 3.852715 11.744741
4820 176 2 -0.834000 36.051260 7.128481 11.737900
4821 176 3 0.417000 35.363922 7.709345 11.411719
4822 176 3 0.417000 36.197008 6.505617 11.025840
4823 177 2 -0.834000 62.071668 24.229524 8.342452
4824 177 3 0.417000 61.293180 23.713896 8.552967
4825 177 3 0.417000 62.113826 24.892670 9.031430
4826 178 2 -0.834000 50.540966 32.788064 8.153319
4827 178 3 0.417000 51.307080 32.963453 7.606931
4828 178 3 0.417000 49.845271 32.577210 7.530598
4829 179 2 -0.834000 47.562484 27.087300 11.673524
4830 179 3 0.417000 46.636651 27.185988 11.451433
4831 179 3 0.417000 47.771267 26.183839 11.436039
4832 180 2 -0.834000 44.760577 32.774724 8.215414
4833 180 3 0.417000 44.796544 33.606507 7.743104
4834 180 3 0.417000 44.869938 33.016103 9.135201
4835 181 2 -0.834000 1.399792 1.484142 11.836031
4836 181 3 0.417000 0.448795 1.378409 11.810406
4837 181 3 0.417000 1.647663 1.213091 12.719956
4838 182 2 -0.834000 38.942409 21.406691 8.214954
4839 182 3 0.417000 39.122473 22.341601 8.116201
4840 182 3 0.417000 39.556153 21.113935 8.888634
4841 183 2 -0.834000 10.099937 32.818841 11.792325
4842 183 3 0.417000 11.003433 32.933214 12.087022
4843 183 3 0.417000 9.572632 32.942109 12.581620
4844 184 2 -0.834000 12.890232 15.790344 11.813840
4845 184 3 0.417000 12.061077 15.358613 11.608066
4846 184 3 0.417000 13.442088 15.627127 11.048957
4847 185 2 -0.834000 59.085617 27.045118 11.796526
4848 185 3 0.417000 59.503685 26.559292 11.085594
4849 185 3 0.417000 59.787076 27.193611 12.430668
4850 186 2 -0.834000 131.190316 9.987730 8.217314
4851 186 3 0.417000 130.871267 10.651038 7.605381
4852 186 3 0.417000 130.437478 9.794813 8.776107
4853 187 2 -0.834000 76.450783 7.222961 11.723489
4854 187 3 0.417000 76.575299 7.224167 12.672555
4855 187 3 0.417000 77.335993 7.288403 11.365225
4856 188 2 -0.834000 90.915273 4.301174 8.172093
4857 188 3 0.417000 91.480724 3.986336 8.877341
4858 188 3 0.417000 90.275700 4.862860 8.609913
4859 189 2 -0.834000 76.483324 10.061728 8.241131
4860 189 3 0.417000 77.047763 9.892511 7.486806
4861 189 3 0.417000 76.590352 9.291038 8.798637
4862 190 2 -0.834000 76.423305 7.195458 8.288844
4863 190 3 0.417000 75.695318 7.211141 7.667538
4864 190 3 0.417000 77.204022 7.110076 7.741650
4865 191 2 -0.834000 67.738458 4.362003 11.830043
4866 191 3 0.417000 67.830534 5.301746 11.987005
4867 191 3 0.417000 66.947274 4.115097 12.308893
4868 192 2 -0.834000 134.190975 15.666393 8.339803
4869 192 3 0.417000 135.020312 15.609402 7.865268
4870 192 3 0.417000 134.224849 14.946336 8.969566
4871 193 2 -0.834000 18.797959 15.620244 8.319500
4872 193 3 0.417000 18.897033 16.162178 7.536733
4873 193 3 0.417000 18.396635 14.811277 8.002099
4874 194 2 -0.834000 41.828248 15.616113 11.682570
4875 194 3 0.417000 42.076789 16.533237 11.798080
4876 194 3 0.417000 42.650037 15.132434 11.765932
4877 195 2 -0.834000 76.389243 30.032563 11.673983
4878 195 3 0.417000 77.105910 29.437104 11.893187
4879 195 3 0.417000 76.052326 30.324645 12.520981
4880 196 2 -0.834000 148.503097 35.634449 8.253365
4881 196 3 0.417000 147.937400 35.044593 7.755080
4882 196 3 0.417000 148.134620 35.630995 9.136793
4883 197 2 -0.834000 136.956134 4.232801 11.827995
4884 197 3 0.417000 137.523490 4.390023 12.582727
4885 197 3 0.417000 136.790283 5.103624 11.466897
4886 198 2 -0.834000 82.181568 32.787330 8.285177
4887 198 3 0.417000 81.783134 32.007082 8.670788
4888 198 3 0.417000 82.526856 33.274993 9.032969
4889 199 2 -0.834000 111.079506 32.861923 11.843901
4890 199 3 0.417000 110.710772 32.066556 12.228165
4891 199 3 0.417000 111.680548 32.546120 11.169180
4892 200 2 -0.834000 134.100326 10.020858 11.693018
4893 200 3 0.417000 134.849558 9.432543 11.786661
4894 200 3 0.417000 133.415207 9.476955 11.304414
4895 201 2 -0.834000 134.176162 24.321087 11.720992
4896 201 3 0.417000 134.540202 23.653899 11.139127
4897 201 3 0.417000 134.147415 23.900317 12.580270
4898 202 2 -0.834000 93.650309 38.539732 8.185660
4899 202 3 0.417000 93.778812 39.348796 7.690549
4900 202 3 0.417000 94.130396 38.679086 9.001950
4901 203 2 -0.834000 122.620782 7.092905 8.183605
4902 203 3 0.417000 123.383379 7.642143 8.365303
4903 203 3 0.417000 122.550737 6.519438 8.946795
4904 204 2 -0.834000 62.005859 30.010833 8.162818
4905 204 3 0.417000 61.834555 29.277698 8.753920
4906 204 3 0.417000 62.874467 30.324332 8.414751
4907 205 2 -0.834000 108.261191 4.226638 11.726681
4908 205 3 0.417000 108.218881 3.278939 11.854384
4909 205 3 0.417000 109.186217 4.443425 11.843136
4910 206 2 -0.834000 136.979214 1.520395 11.822808
4911 206 3 0.417000 136.635177 1.463606 12.714237
4912 206 3 0.417000 136.616203 0.755495 11.376285
4913 207 2 -0.834000 59.068004 12.934069 11.767985
4914 207 3 0.417000 59.224212 12.008987 11.578106
4915 207 3 0.417000 58.983750 12.972612 12.720690
4916 208 2 -0.834000 125.446069 15.806144 8.299041
4917 208 3 0.417000 125.147784 16.070804 7.428861
4918 208 3 0.417000 126.032875 15.067429 8.137203
4919 209 2 -0.834000 59.075418 10.097107 8.278908
4920 209 3 0.417000 59.889869 10.173411 7.781838
4921 209 3 0.417000 59.024838 10.909334 8.782854
4922 210 2 -0.834000 18.782200 9.994134 11.728940
4923 210 3 0.417000 18.936992 10.654654 11.053674
4924 210 3 0.417000 18.902160 10.462692 12.554951
4925 211 2 -0.834000 73.459127 7.194952 8.270855
4926 211 3 0.417000 72.505921 7.173676 8.355577
4927 211 3 0.417000 73.778773 7.255779 9.171054
4928 212 2 -0.834000 85.140476 27.120665 8.303342
4929 212 3 0.417000 84.754797 27.951679 8.580650
4930 212 3 0.417000 84.948001 27.067293 7.367213
4931 213 2 -0.834000 102.333332 7.242715 8.305558
4932 213 3 0.417000 102.144161 6.369385 8.648693
4933 213 3 0.417000 103.245536 7.403101 8.547204
4934 214 2 -0.834000 36.031998 12.886138 11.679627
4935 214 3 0.417000 36.751831 13.473750 11.909378
4936 214 3 0.417000 36.462126 12.098091 11.347658
4937 215 2 -0.834000 108.193605 15.798145 8.301165
4938 215 3 0.417000 108.771091 15.150706 8.705596
4939 215 3 0.417000 107.539705 15.989656 8.973452
4940 216 2 -0.834000 53.416875 27.196124 11.681185
4941 216 3 0.417000 53.731608 27.213161 12.585002
4942 216 3 0.417000 52.487691 27.416557 11.746434
4943 217 2 -0.834000 27.360231 18.615383 11.673651
4944 217 3 0.417000 27.281487 18.333565 10.762273
4945 217 3 0.417000 28.301835 18.716057 11.813218
4946 218 2 -0.834000 70.635700 29.907861 11.688606
4947 218 3 0.417000 69.985235 29.771267 12.377424
4948 218 3 0.417000 71.152209 29.101995 11.683059
4949 219 2 -0.834000 113.978782 21.494355 11.847338
4950 219 3 0.417000 114.897429 21.254234 11.968423
4951 219 3 0.417000 113.909738 21.718959 10.919428
4952 220 2 -0.834000 10.172814 15.765683 11.821186
4953 220 3 0.417000 10.989068 15.298769 11.642432
4954 220 3 0.417000 10.250129 16.581935 11.327237
4955 221 2 -0.834000 53.439453 12.885148 11.752002
4956 221 3 0.417000 52.873148 13.620344 11.517445
4957 221 3 0.417000 53.507279 12.929231 12.705778
4958 222 2 -0.834000 148.595430 7.188554 11.664079
4959 222 3 0.417000 148.274442 7.252621 10.764583
4960 222 3 0.417000 149.262270 7.872064 11.730181
4961 223 2 -0.834000 24.587619 15.711091 11.760231
4962 223 3 0.417000 25.278297 16.038099 12.336653
4963 223 3 0.417000 24.011032 16.463241 11.625886
4964 224 2 -0.834000 44.696886 24.213126 11.823453
4965 224 3 0.417000 43.823652 24.604275 11.797050
4966 224 3 0.417000 44.558081 23.340865 12.192404
4967 225 2 -0.834000 82.240032 35.663608 8.221386
4968 225 3 0.417000 81.763698 35.758361 9.046225
4969 225 3 0.417000 83.015465 35.150908 8.449588
4970 226 2 -0.834000 59.131041 21.367943 11.768945
4971 226 3 0.417000 59.453461 21.272144 12.665104
4972 226 3 0.417000 58.510689 22.095543 11.813582
4973 227 2 -0.834000 96.626678 15.769392 11.808896
4974 227 3 0.417000 97.394259 15.373048 11.396631
4975 227 3 0.417000 96.898195 16.664793 12.010804
4976 228 2 -0.834000 47.641768 4.282767 8.260651
4977 228 3 0.417000 46.879501 4.402470 7.694213
4978 228 3 0.417000 48.110683 5.115777 8.211203
4979 229 2 -0.834000 96.593940 9.964574 8.169455
4980 229 3 0.417000 96.243861 10.785866 7.824267
4981 229 3 0.417000 96.114298 9.823495 8.985710
4982 230 2 -0.834000 7.291264 9.971003 8.230218
4983 230 3 0.417000 7.850158 9.200966 8.125755
4984 230 3 0.417000 7.795464 10.558973 8.792629
4985 231 2 -0.834000 142.782326 12.944152 8.286120
4986 231 3 0.417000 143.555182 13.071337 8.836347
4987 231 3 0.417000 143.057014 12.302470 7.631122
4988 232 2 -0.834000 27.468234 38.507456 11.687668
4989 232 3 0.417000 27.566312 39.450910 11.816147
4990 232 3 0.417000 28.161544 38.276067 11.069597
4991 233 2 -0.834000 15.789805 18.669262 11.778814
4992 233 3 0.417000 16.385801 18.199344 12.362078
4993 233 3 0.417000 15.044975 18.078028 11.669718
4994 234 2 -0.834000 137.010438 21.432602 11.786350
4995 234 3 0.417000 137.602854 20.803466 11.374691
4996 234 3 0.417000 137.434890 21.655271 12.614897
4997 235 2 -0.834000 53.429623 35.741661 8.303291
4998 235 3 0.417000 52.493183 35.703354 8.497828
4999 235 3 0.417000 53.855287 35.672431 9.157837
5000 236 2 -0.834000 35.962438 24.219189 8.344485
5001 236 3 0.417000 35.822229 24.715715 7.538237
5002 236 3 0.417000 35.383169 24.632505 8.984680
5003 237 2 -0.834000 145.746134 38.557532 8.229517
5004 237 3 0.417000 145.697698 37.651072 7.925846
5005 237 3 0.417000 146.368167 38.534112 8.956675
5006 238 2 -0.834000 56.180031 18.494233 8.238025
5007 238 3 0.417000 56.681093 18.556117 9.051253
5008 238 3 0.417000 55.695950 19.318668 8.191076
5009 239 2 -0.834000 1.364983 27.203059 11.769953
5010 239 3 0.417000 1.000759 26.352742 11.523917
5011 239 3 0.417000 2.278321 27.164102 11.486179
5012 240 2 -0.834000 59.108059 24.362120 11.691245
5013 240 3 0.417000 58.271334 23.897973 11.717521
5014 240 3 0.417000 59.762910 23.686486 11.867083
5015 241 2 -0.834000 79.251908 12.796139 8.328602
5016 241 3 0.417000 79.869544 12.253155 7.838780
5017 241 3 0.417000 79.649274 13.666949 8.333312
5018 242 2 -0.834000 90.794465 35.629675 11.780154
5019 242 3 0.417000 90.078021 34.994931 11.774003
5020 242 3 0.417000 91.143450 35.589045 12.670542
5021 243 2 -0.834000 15.900177 9.952633 8.237004
5022 243 3 0.417000 16.081682 10.732555 7.712590
5023 243 3 0.417000 15.358810 10.270066 8.959769
5024 244 2 -0.834000 142.772004 1.491531 8.280919
5025 244 3 0.417000 143.278611 0.679414 8.274055
5026 244 3 0.417000 141.876692 1.214243 8.475241
5027 245 2 -0.834000 47.681085 12.953170 8.183141
5028 245 3 0.417000 48.415979 12.603403 8.686953
5029 245 3 0.417000 48.088900 13.502427 7.513637
5030 246 2 -0.834000 59.108621 1.451352 8.335605
5031 246 3 0.417000 58.670407 0.693051 8.721843
5032 246 3 0.417000 59.623752 1.821674 9.052357
5033 247 2 -0.834000 79.262433 21.366876 11.650362
5034 247 3 0.417000 78.588117 21.359432 12.329682
5035 247 3 0.417000 80.002392 20.902545 12.041628
5036 248 2 -0.834000 1.481921 38.626962 8.153073
5037 248 3 0.417000 0.900058 39.013861 8.807272
5038 248 3 0.417000 1.669700 39.342577 7.545729
5039 249 2 -0.834000 64.807101 4.335835 8.256950
5040 249 3 0.417000 65.583722 4.207000 8.801462
5041 249 3 0.417000 64.462290 5.186588 8.528162
5042 250 2 -0.834000 90.818166 10.015284 8.219484
5043 250 3 0.417000 90.048700 9.447727 8.264557
5044 250 3 0.417000 91.529372 9.434361 7.949398
5045 251 2 -0.834000 41.877095 4.364203 8.150272
5046 251 3 0.417000 41.277735 3.860254 7.599786
5047 251 3 0.417000 42.598985 4.598577 7.567026
5048 252 2 -0.834000 145.720722 10.052988 8.204250
5049 252 3 0.417000 145.478011 9.532209 7.438671
5050 252 3 0.417000 144.906671 10.145974 8.699131
5051 253 2 -0.834000 88.019922 29.976321 11.709149
5052 253 3 0.417000 87.964816 29.020834 11.724590
5053 253 3 0.417000 88.654700 30.191174 12.392616
5054 254 2 -0.834000 24.534775 18.623239 11.831794
5055 254 3 0.417000 24.982867 19.415850 11.536475
5056 254 3 0.417000 23.631191 18.900573 11.982970
5057 255 2 -0.834000 62.098204 32.783568 11.790646
5058 255 3 0.417000 61.771633 32.460907 10.950722
5059 255 3 0.417000 62.706623 32.106875 12.087538
5060 256 2 -0.834000 119.724687 38.624126 11.815113
5061 256 3 0.417000 120.112151 38.581663 12.689356
5062 256 3 0.417000 119.564013 39.556339 11.668842
5063 257 2 -0.834000 119.633305 18.611073 11.693283
5064 257 3 0.417000 119.914016 18.152416 12.485158
5065 257 3 0.417000 120.444486 18.940733 11.306578
5066 258 2 -0.834000 131.229183 29.913422 11.839272
5067 258 3 0.417000 130.722012 29.787585 12.641254
5068 258 3 0.417000 132.107794 30.140119 12.144039
5069 259 2 -0.834000 82.229279 10.031389 11.735330
5070 259 3 0.417000 82.442263 9.338909 12.360903
5071 259 3 0.417000 81.355353 10.325933 11.991707
5072 260 2 -0.834000 7.178505 18.517496 8.198888
5073 260 3 0.417000 8.025488 18.466424 7.755893
5074 260 3 0.417000 7.261823 17.923903 8.945171
5075 261 2 -0.834000 70.653069 35.780341 11.676931
5076 261 3 0.417000 70.765497 35.060601 12.297871
5077 261 3 0.417000 69.779181 36.123664 11.863159
5078 262 2 -0.834000 13.066027 21.333263 11.847682
5079 262 3 0.417000 12.234979 20.992645 11.516668
5080 262 3 0.417000 12.827052 21.830654 12.629811
5081 263 2 -0.834000 62.081958 21.490241 8.306850
5082 263 3 0.417000 62.797090 21.524202 8.942196
5083 263 3 0.417000 62.333906 20.795191 7.698854
5084 264 2 -0.834000 44.758572 21.512514 8.179013
5085 264 3 0.417000 44.137135 22.096666 8.613540
5086 264 3 0.417000 45.611603 21.924377 8.316630
5087 265 2 -0.834000 76.488199 1.339064 11.721600
5088 265 3 0.417000 75.788727 1.392376 11.070347
5089 265 3 0.417000 76.689478 2.250724 11.932775
5090 266 2 -0.834000 99.564835 18.586098 11.750954
5091 266 3 0.417000 98.836240 19.206129 11.720260
5092 266 3 0.417000 99.660315 18.373768 12.679411
5093 267 2 -0.834000 93.660934 30.045156 8.191075
5094 267 3 0.417000 92.951307 29.690679 8.726806
5095 267 3 0.417000 93.906785 30.860772 8.627608
5096 268 2 -0.834000 4.328922 32.952364 8.246493
5097 268 3 0.417000 4.388975 33.293807 7.354281
5098 268 3 0.417000 4.575727 32.030873 8.167924
5099 269 2 -0.834000 59.170155 32.832457 11.777809
5100 269 3 0.417000 59.572305 32.954143 10.917751
5101 269 3 0.417000 59.305998 33.666998 12.226496
5102 270 2 -0.834000 96.556504 4.206394 8.178882
5103 270 3 0.417000 97.371551 4.152999 8.677960
5104 270 3 0.417000 96.298721 3.294769 8.042057
5105 271 2 -0.834000 99.560421 38.511119 11.689044
5106 271 3 0.417000 98.916842 38.929001 12.261244
5107 271 3 0.417000 100.384540 38.568605 12.172526
5108 272 2 -0.834000 67.815987 9.966096 8.273766
5109 272 3 0.417000 67.362548 10.179159 9.089382
5110 272 3 0.417000 67.645927 10.714703 7.702016
5111 273 2 -0.834000 21.566789 12.781161 11.752164
5112 273 3 0.417000 21.475764 11.854302 11.973247
5113 273 3 0.417000 22.440298 12.851367 11.367087
5114 274 2 -0.834000 145.622092 7.076610 8.158480
5115 274 3 0.417000 145.461900 7.321046 7.246986
5116 274 3 0.417000 144.799011 6.684445 8.449987
5117 275 2 -0.834000 102.493132 27.157391 11.785225
5118 275 3 0.417000 103.141618 27.540621 12.375846
5119 275 3 0.417000 102.844767 26.293310 11.570867
5120 276 2 -0.834000 15.947094 4.377559 11.784730
5121 276 3 0.417000 16.784774 4.819322 11.645558
5122 276 3 0.417000 15.374438 4.728603 11.102773
5123 277 2 -0.834000 44.808722 15.715021 11.731163
5124 277 3 0.417000 44.099543 16.340599 11.879312
5125 277 3 0.417000 44.746227 15.497209 10.801171
5126 278 2 -0.834000 10.029813 38.553428 11.769479
5127 278 3 0.417000 10.536953 39.358574 11.665644
5128 278 3 0.417000 10.008150 38.168760 10.893241
5129 279 2 -0.834000 76.410264 27.231762 8.171586
5130 279 3 0.417000 75.605938 27.580767 7.787546
5131 279 3 0.417000 76.903758 28.006648 8.440374
5132 280 2 -0.834000 39.025746 27.156492 8.221032
5133 280 3 0.417000 38.183911 27.533933 7.965919
5134 280 3 0.417000 39.218624 26.515562 7.536753
5135 281 2 -0.834000 108.118813 21.352197 11.672550
5136 281 3 0.417000 108.517595 20.487237 11.577427
5137 281 3 0.417000 108.453407 21.680247 12.507213
5138 282 2 -0.834000 4.234814 38.522664 8.324119
5139 282 3 0.417000 3.859485 38.477252 7.444746
5140 282 3 0.417000 5.158259 38.301948 8.202604
5141 283 2 -0.834000 53.288837 18.476839 8.250082
5142 283 3 0.417000 53.668274 17.635546 8.504022
5143 283 3 0.417000 52.876803 18.805266 9.049203
5144 284 2 -0.834000 99.486084 4.259038 8.157898
5145 284 3 0.417000 100.440997 4.240993 8.221523
5146 284 3 0.417000 99.191675 3.590502 8.776458
5147 285 2 -0.834000 27.391880 18.548688 8.347712
5148 285 3 0.417000 26.587027 18.809365 8.795475
5149 285 3 0.417000 28.095164 18.861514 8.916714
5150 286 2 -0.834000 53.457381 9.980797 11.834706
5151 286 3 0.417000 53.698193 10.500396 12.601687
5152 286 3 0.417000 52.531879 9.774499 11.965541
5153 287 2 -0.834000 116.843404 24.219395 8.345119
5154 287 3 0.417000 116.941073 23.408804 7.845483
5155 287 3 0.417000 116.680720 23.929838 9.242851
5156 288 2 -0.834000 113.921426 35.712864 8.290926
5157 288 3 0.417000 113.875543 36.568813 8.716928
5158 288 3 0.417000 113.489917 35.841733 7.446281
5159 289 2 -0.834000 44.657671 4.282345 8.198152
5160 289 3 0.417000 44.604055 3.885793 7.328610
5161 289 3 0.417000 44.446712 3.569074 8.800624
5162 290 2 -0.834000 56.199625 4.256427 8.332777
5163 290 3 0.417000 57.042298 3.807995 8.403786
5164 290 3 0.417000 56.412659 5.184489 8.430498
5165 291 2 -0.834000 38.972923 12.835445 11.717999
5166 291 3 0.417000 38.368039 12.535595 11.039443
5167 291 3 0.417000 39.728286 13.170707 11.235033
5168 292 2 -0.834000 145.655545 18.500732 8.325492
5169 292 3 0.417000 145.135067 18.267177 9.094119
5170 292 3 0.417000 146.462531 17.994560 8.419275
5171 293 2 -0.834000 61.993438 12.854585 11.670181
5172 293 3 0.417000 62.270794 13.689308 11.292634
5173 293 3 0.417000 62.389786 12.191856 11.104557
5174 294 2 -0.834000 139.985582 4.288501 8.349092
5175 294 3 0.417000 140.354742 3.447743 8.078761
5176 294 3 0.417000 140.668184 4.927406 8.143937
5177 295 2 -0.834000 35.979473 12.809737 8.273005
5178 295 3 0.417000 35.882424 11.857730 8.295264
5179 295 3 0.417000 35.082370 13.142955 8.293131
5180 296 2 -0.834000 50.461847 10.060785 8.268774
5181 296 3 0.417000 49.665072 10.376029 7.842158
5182 296 3 0.417000 50.517015 9.137586 8.022010
5183 297 2 -0.834000 47.669516 32.916444 11.654716
5184 297 3 0.417000 46.976771 32.388963 11.257099
5185 297 3 0.417000 47.991870 33.466681 10.940882
5186 298 2 -0.834000 56.337944 27.072276 11.719519
5187 298 3 0.417000 57.033552 26.445354 11.521197
5188 298 3 0.417000 55.540008 26.544336 11.747967
5189 299 2 -0.834000 79.334796 1.505382 11.710309
5190 299 3 0.417000 79.863265 0.774849 11.388947
5191 299 3 0.417000 78.959595 1.895663 10.920919
5192 300 2 -0.834000 33.079028 27.064978 8.309224
5193 300 3 0.417000 33.401274 26.710665 9.137988
5194 300 3 0.417000 33.165571 26.341116 7.688929
5195 301 2 -0.834000 53.305692 21.462516 11.786765
5196 301 3 0.417000 53.979819 21.553140 12.460242
5197 301 3 0.417000 53.322483 20.534256 11.553776
5198 302 2 -0.834000 56.341378 12.957089 11.697361
5199 302 3 0.417000 56.411984 12.628520 10.801097
5200 302 3 0.417000 57.178181 12.729981 12.102843
5201 303 2 -0.834000 131.318889 38.550285 8.194057
5202 303 3 0.417000 130.610683 39.113228 8.506740
5203 303 3 0.417000 131.153145 38.454647 7.256180
5204 304 2 -0.834000 85.064066 24.226656 11.849767
5205 304 3 0.417000 85.700500 24.849166 12.201429
5206 304 3 0.417000 85.116378 23.472484 12.436895
5207 305 2 -0.834000 90.767952 21.499149 11.791048
5208 305 3 0.417000 90.824637 22.454048 11.756583
5209 305 3 0.417000 90.220340 21.318668 12.555103
5210 306 2 -0.834000 128.378126 24.230361 11.714084
5211 306 3 0.417000 127.442771 24.117866 11.883457
5212 306 3 0.417000 128.739908 23.345819 11.768239
5213 307 2 -0.834000 93.839814 32.921097 8.174536
5214 307 3 0.417000 94.321044 33.409738 8.842277
5215 307 3 0.417000 93.926322 33.449782 7.381289
5216 308 2 -0.834000 59.122611 18.661026 11.656554
5217 308 3 0.417000 58.408831 19.281787 11.802860
5218 308 3 0.417000 59.005555 18.369477 10.752381
5219 309 2 -0.834000 67.794672 32.902847 8.202952
5220 309 3 0.417000 67.822037 32.017318 8.565336
5221 309 3 0.417000 66.926081 33.230745 8.435898
5222 310 2 -0.834000 139.885854 32.943253 8.272825
5223 310 3 0.417000 139.454849 32.119238 8.499686
5224 310 3 0.417000 140.222182 33.275278 9.105215
5225 311 2 -0.834000 125.550787 15.753757 11.695472
5226 311 3 0.417000 125.995557 15.603833 10.861245
5227 311 3 0.417000 124.881698 16.408681 11.496409
5228 312 2 -0.834000 87.911484 21.451057 11.714314
5229 312 3 0.417000 88.668040 21.484929 12.299727
5230 312 3 0.417000 87.155575 21.550522 12.293055
5231 313 2 -0.834000 33.087001 1.339955 8.311798
5232 313 3 0.417000 33.301144 0.434620 8.537060
5233 313 3 0.417000 32.212458 1.290790 7.925808
5234 314 2 -0.834000 41.871652 7.212920 11.652672
5235 314 3 0.417000 40.999622 7.477563 11.359824
5236 314 3 0.417000 42.365012 8.031341 11.707585
5237 315 2 -0.834000 64.928336 12.764876 11.823743
5238 315 3 0.417000 64.599250 13.659890 11.906716
5239 315 3 0.417000 65.529953 12.661076 12.560977
5240 316 2 -0.834000 113.892070 38.661459 8.216364
5241 316 3 0.417000 113.944901 38.965830 9.122343
5242 316 3 0.417000 112.963356 38.728422 7.994468
5243 317 2 -0.834000 82.171903 27.241692 8.325776
5244 317 3 0.417000 81.226047 27.388621 8.325544
5245 317 3 0.417000 82.406929 27.192686 9.252379
5246 318 2 -0.834000 50.580155 18.489336 11.771566
5247 318 3 0.417000 51.533629 18.474721 11.688460
5248 318 3 0.417000 50.407097 18.084348 12.621429
5249 319 2 -0.834000 47.595702 29.958628 11.773636
5250 319 3 0.417000 48.090644 29.895758 10.956744
5251 319 3 0.417000 48.261012 29.921393 12.460810
5252 320 2 -0.834000 47.688032 24.334585 11.779312
5253 320 3 0.417000 47.686421 25.248722 12.063185
5254 320 3 0.417000 47.036575 23.909038 12.336756
5255 321 2 -0.834000 87.952971 12.873160 11.650994
5256 321 3 0.417000 87.075376 12.813754 11.273462
5257 321 3 0.417000 87.804060 12.951483 12.593290
5258 322 2 -0.834000 136.970615 12.885292 11.779798
5259 322 3 0.417000 137.559539 12.134330 11.705931
5260 322 3 0.417000 136.554037 12.780358 12.635183
5261 323 2 -0.834000 76.385797 38.503445 11.750971
5262 323 3 0.417000 76.789966 39.182000 11.210191
5263 323 3 0.417000 76.077510 37.848995 11.124164
5264 324 2 -0.834000 108.146247 27.147127 11.663350
5265 324 3 0.417000 108.247034 28.056818 11.383109
5266 324 3 0.417000 107.254812 27.099790 12.008798
5267 325 2 -0.834000 113.978145 29.980927 8.168537
5268 325 3 0.417000 113.998148 29.048266 7.954122
5269 325 3 0.417000 113.220566 30.320511 7.692105
5270 326 2 -0.834000 119.716100 27.160896 8.212861
5271 326 3 0.417000 120.284145 27.208813 8.981796
5272 326 3 0.417000 119.024720 26.548013 8.463060
5273 327 2 -0.834000 33.120262 18.648625 11.777439
5274 327 3 0.417000 32.196702 18.747612 11.546202
5275 327 3 0.417000 33.307543 19.397495 12.343434
5276 328 2 -0.834000 102.365657 32.913642 11.731171
5277 328 3 0.417000 101.471924 33.254702 11.765112
5278 328 3 0.417000 102.456401 32.398146 12.532584
5279 329 2 -0.834000 105.283824 1.357676 8.210688
5280 329 3 0.417000 104.855943 2.122978 8.594698
5281 329 3 0.417000 104.734890 0.618813 8.473337
5282 330 2 -0.834000 59.107589 15.778820 11.694586
5283 330 3 0.417000 58.446558 15.910147 12.374309
5284 330 3 0.417000 58.785250 16.280970 10.946138
5285 331 2 -0.834000 148.561774 21.377453 8.298777
5286 331 3 0.417000 148.718807 21.803101 7.455928
5287 331 3 0.417000 149.277190 21.680694 8.857755
5288 332 2 -0.834000 1.372097 12.855224 8.201798
5289 332 3 0.417000 0.746021 12.278470 8.639535
5290 332 3 0.417000 1.488732 13.586882 8.807855
5291 333 2 -0.834000 41.869094 27.219094 11.846117
5292 333 3 0.417000 42.186593 26.369629 12.152442
5293 333 3 0.417000 40.944603 27.233294 12.093802
5294 334 2 -0.834000 99.557035 35.615329 11.797816
5295 334 3 0.417000 98.764413 35.080074 11.759300
5296 334 3 0.417000 100.018490 35.419846 10.982293
5297 335 2 -0.834000 119.757661 1.491883 11.797584
5298 335 3 0.417000 118.840607 1.415642 12.061081
5299 335 3 0.417000 120.206783 0.804901 12.290104
5300 336 2 -0.834000 44.641676 18.657920 8.201948
5301 336 3 0.417000 45.417891 18.328344 7.749065
5302 336 3 0.417000 44.448682 19.491099 7.772067
5303 337 2 -0.834000 10.157945 21.354422 11.666433
5304 337 3 0.417000 9.909015 22.185513 12.070849
5305 337 3 0.417000 9.764914 20.686762 12.228562
5306 338 2 -0.834000 136.950783 15.788613 11.805628
5307 338 3 0.417000 137.796521 16.195840 11.993047
5308 338 3 0.417000 136.904940 15.759549 10.849968
5309 339 2 -0.834000 15.939798 38.588385 8.197124
5310 339 3 0.417000 16.605866 38.566362 7.510029
5311 339 3 0.417000 16.419473 38.832678 8.988619
5312 340 2 -0.834000 18.658191 18.490181 8.204209
5313 340 3 0.417000 18.179817 19.259097 7.894115
5314 340 3 0.417000 18.413874 17.793657 7.594787
5315 341 2 -0.834000 30.243788 27.100641 8.316798
5316 341 3 0.417000 29.745129 26.992787 9.126699
5317 341 3 0.417000 29.639584 27.542162 7.719950
5318 342 2 -0.834000 64.948542 1.443032 11.735439
5319 342 3 0.417000 64.059982 1.276207 12.049861
5320 342 3 0.417000 65.512115 0.965287 12.344024
5321 343 2 -0.834000 27.351934 32.876173 8.202800
5322 343 3 0.417000 26.628578 32.920240 8.828137
5323 343 3 0.417000 26.933293 32.677806 7.365171
5324 344 2 -0.834000 137.081058 30.083530 8.258361
5325 344 3 0.417000 137.498992 30.249910 9.103275
5326 344 3 0.417000 136.307978 29.561004 8.471777
5327 345 2 -0.834000 70.581204 27.179871 11.713162
5328 345 3 0.417000 70.493653 26.571107 10.979696
5329 345 3 0.417000 71.496388 27.458980 11.685457
5330 346 2 -0.834000 122.681596 1.344107 11.791671
5331 346 3 0.417000 123.041698 0.629504 11.266407
5332 346 3 0.417000 122.443833 0.934376 12.623428
5333 347 2 -0.834000 56.300669 21.337259 8.316846
5334 347 3 0.417000 56.828060 22.133941 8.375048
5335 347 3 0.417000 55.951964 21.344877 7.425454
5336 348 2 -0.834000 30.234621 32.913838 8.315514
5337 348 3 0.417000 29.806490 32.105661 8.597977
5338 348 3 0.417000 29.671540 33.253219 7.619818
5339 349 2 -0.834000 38.873769 30.003474 8.224278
5340 349 3 0.417000 39.157763 30.576575 8.936412
5341 349 3 0.417000 39.162048 30.449409 7.427868
5342 350 2 -0.834000 85.000190 27.063271 11.718751
5343 350 3 0.417000 84.239690 26.493749 11.602486
5344 350 3 0.417000 84.846052 27.501605 12.555612
5345 351 2 -0.834000 39.013491 4.355889 8.213181
5346 351 3 0.417000 38.902674 3.606642 7.627877
5347 351 3 0.417000 39.091599 5.108708 7.627182
5348 352 2 -0.834000 18.794392 24.302970 8.316151
5349 352 3 0.417000 18.694575 24.773152 9.143918
5350 352 3 0.417000 17.906672 24.249081 7.962201
5351 353 2 -0.834000 1.496338 18.534996 8.324249
5352 353 3 0.417000 1.821368 17.733544 8.734446
5353 353 3 0.417000 1.717420 19.229095 8.945202
5354 354 2 -0.834000 41.863759 27.067465 8.167303
5355 354 3 0.417000 41.859327 26.806186 7.246464
5356 354 3 0.417000 42.668903 27.575067 8.268865
5357 355 2 -0.834000 131.162360 35.774155 8.249996
5358 355 3 0.417000 131.280101 34.844308 8.055696
5359 355 3 0.417000 131.818701 35.964244 8.920305
5360 356 2 -0.834000 30.207685 24.314789 8.281586
5361 356 3 0.417000 29.319364 23.962932 8.339150
5362 356 3 0.417000 30.352446 24.740431 9.126634
5363 357 2 -0.834000 108.248913 15.739060 11.849895
5364 357 3 0.417000 107.455563 15.298537 12.154472
5365 357 3 0.417000 108.018669 16.668100 11.839662
5366 358 2 -0.834000 119.721970 29.991594 11.812717
5367 358 3 0.417000 120.043495 29.155366 12.149728
5368 358 3 0.417000 119.551867 29.827103 10.885225
5369 359 2 -0.834000 18.702825 38.520870 8.294699
5370 359 3 0.417000 19.575242 38.784683 8.587143
5371 359 3 0.417000 18.257924 39.344210 8.093686
5372 360 2 -0.834000 128.433140 15.750491 8.193440
5373 360 3 0.417000 128.589985 16.300947 7.426219
5374 360 3 0.417000 128.083273 16.350666 8.851934
5375 361 2 -0.834000 148.569332 18.488832 11.821823
5376 361 3 0.417000 149.191108 18.464666 11.094470
5377 361 3 0.417000 148.664452 19.367352 12.189772
5378 362 2 -0.834000 13.074536 15.617994 8.228038
5379 362 3 0.417000 13.523426 16.393798 8.563981
5380 362 3 0.417000 13.604994 15.337978 7.482091
5381 363 2 -0.834000 21.707329 21.498333 8.223258
5382 363 3 0.417000 21.396643 21.677312 7.335749
5383 363 3 0.417000 22.048432 20.604902 8.182508
5384 364 2 -0.834000 59.082822 35.729491 11.727230
5385 364 3 0.417000 59.710229 35.926399 11.031658
5386 364 3 0.417000 59.206282 34.797059 11.904885
5387 365 2 -0.834000 70.576080 18.574499 11.724241
5388 365 3 0.417000 69.935983 19.283799 11.782554
5389 365 3 0.417000 70.707412 18.294677 12.630157
5390 366 2 -0.834000 125.455460 27.077531 8.269661
5391 366 3 0.417000 124.603432 27.400673 7.976643
5392 366 3 0.417000 125.937600 27.865445 8.520589
5393 367 2 -0.834000 116.778982 27.241785 8.277154
5394 367 3 0.417000 116.240932 27.822385 8.815333
5395 367 3 0.417000 117.136309 27.809899 7.594662
5396 368 2 -0.834000 64.961468 38.632569 8.189731
5397 368 3 0.417000 64.038601 38.845034 8.329039
5398 368 3 0.417000 65.340454 38.621271 9.068635
5399 369 2 -0.834000 36.128751 18.553217 11.699334
5400 369 3 0.417000 35.455172 19.151933 12.021921
5401 369 3 0.417000 36.874842 19.117793 11.497262
5402 370 2 -0.834000 59.097273 38.628983 11.771408
5403 370 3 0.417000 58.617269 39.423198 12.006038
5404 370 3 0.417000 59.036396 38.584860 10.817166
5405 371 2 -0.834000 12.984066 38.640552 8.170169
5406 371 3 0.417000 13.774357 38.188120 7.875249
5407 371 3 0.417000 12.658910 39.089130 7.389603
5408 372 2 -0.834000 44.616792 7.159848 11.788654
5409 372 3 0.417000 44.777682 6.282104 11.442373
5410 372 3 0.417000 44.787216 7.082460 12.727376
5411 373 2 -0.834000 18.820018 7.136529 8.281280
5412 373 3 0.417000 18.271959 7.898354 8.469655
5413 373 3 0.417000 19.678540 7.364417 8.637986
5414 374 2 -0.834000 47.568713 38.499548 8.316112
5415 374 3 0.417000 48.143539 39.264300 8.285095
5416 374 3 0.417000 47.945460 37.943652 8.998221
5417 375 2 -0.834000 73.645377 15.641315 11.773638
5418 375 3 0.417000 74.254199 14.913452 11.648006
5419 375 3 0.417000 74.036102 16.367603 11.287767
5420 376 2 -0.834000 13.010025 7.181231 11.738372
5421 376 3 0.417000 12.592824 7.124477 10.878748
5422 376 3 0.417000 13.851668 7.604600 11.569174
5423 377 2 -0.834000 36.023382 18.548429 8.206048
5424 377 3 0.417000 36.401451 19.423514 8.292778
5425 377 3 0.417000 36.767274 17.954544 8.306831
5426 378 2 -0.834000 99.534725 21.354244 8.246768
5427 378 3 0.417000 99.756687 20.476898 7.934953
5428 378 3 0.417000 100.380380 21.780373 8.386456
5429 379 2 -0.834000 119.723353 27.219841 11.757144
5430 379 3 0.417000 120.124523 26.402944 12.053747
5431 379 3 0.417000 120.379996 27.615386 11.183912
5432 380 2 -0.834000 76.408105 24.307675 11.661115
5433 380 3 0.417000 76.132058 24.506521 10.766414
5434 380 3 0.417000 76.573743 23.364923 11.657237
5435 381 2 -0.834000 12.942118 4.290348 8.273712
5436 381 3 0.417000 13.224351 5.115893 8.667480
5437 381 3 0.417000 12.194398 4.529042 7.725833
5438 382 2 -0.834000 105.230241 10.059772 11.709077
5439 382 3 0.417000 106.114460 10.011711 12.072503
5440 382 3 0.417000 104.727733 9.421344 12.215167
5441 383 2 -0.834000 148.654758 32.947247 8.223475
5442 383 3 0.417000 147.909237 33.478705 8.502729
5443 383 3 0.417000 149.167785 33.529255 7.662850
5444 384 2 -0.834000 82.117734 27.163661 11.823119
5445 384 3 0.417000 81.965182 27.824629 11.147782
5446 384 3 0.417000 83.013111 26.863349 11.667090
5447 385 2 -0.834000 148.561487 27.218463 11.737936
5448 385 3 0.417000 148.333228 27.487618 10.848169
5449 385 3 0.417000 148.857420 28.023115 12.163600
5450 386 2 -0.834000 122.603815 1.409085 8.166499
5451 386 3 0.417000 121.949859 2.066630 7.929416
5452 386 3 0.417000 122.200008 0.915504 8.880327
5453 387 2 -0.834000 139.844970 35.788193 8.248241
5454 387 3 0.417000 139.073393 35.429038 7.810168
5455 387 3 0.417000 139.628166 36.708025 8.400351
5456 388 2 -0.834000 47.637325 35.750696 8.185292
5457 388 3 0.417000 47.093341 35.985383 7.433471
5458 388 3 0.417000 47.856446 34.829573 8.044755
5459 389 2 -0.834000 148.465898 18.501233 8.154674
5460 389 3 0.417000 147.510914 18.523267 8.093426
5461 389 3 0.417000 148.657625 18.828436 9.033544
5462 390 2 -0.834000 128.311699 1.441383 8.227456
5463 390 3 0.417000 128.917991 0.764794 7.926011
5464 390 3 0.417000 128.525954 2.209068 7.697374
5465 391 2 -0.834000 90.809029 30.057877 11.705284
5466 391 3 0.417000 91.597254 30.314880 11.226867
5467 391 3 0.417000 90.112458 30.593368 11.325456
5468 392 2 -0.834000 88.062093 24.215857 11.691674
5469 392 3 0.417000 87.300321 24.791000 11.619943
5470 392 3 0.417000 88.033146 23.890316 12.591350
5471 393 2 -0.834000 1.383083 9.937096 11.677429
5472 393 3 0.417000 0.620940 9.511145 11.285081
5473 393 3 0.417000 1.485433 10.749657 11.181949
5474 394 2 -0.834000 105.384059 7.067671 11.835173
5475 394 3 0.417000 105.684962 6.184941 11.619589
5476 394 3 0.417000 105.792401 7.261007 12.679039
5477 395 2 -0.834000 139.864687 18.493308 11.721563
5478 395 3 0.417000 140.385657 17.705970 11.563701
5479 395 3 0.417000 140.480182 19.216449 11.601289
5480 396 2 -0.834000 82.208608 15.744492 8.345054
5481 396 3 0.417000 82.640483 14.964957 7.995709
5482 396 3 0.417000 82.913661 16.246681 8.753637
5483 397 2 -0.834000 122.602599 35.736010 8.287375
5484 397 3 0.417000 121.850859 35.805218 7.698877
5485 397 3 0.417000 123.167204 36.469222 8.042724
5486 398 2 -0.834000 18.687668 21.415718 8.303181
5487 398 3 0.417000 17.736150 21.418253 8.407292
5488 398 3 0.417000 18.960862 22.292768 8.572219
5489 399 2 -0.834000 33.109537 9.933653 8.282902
5490 399 3 0.417000 33.959304 9.543357 8.078463
5491 399 3 0.417000 33.295659 10.864977 8.402176
5492 400 2 -0.834000 33.185370 24.229561 11.717409
5493 400 3 0.417000 32.810356 24.842722 12.349572
5494 400 3 0.417000 32.630526 23.452014 11.779057
5495 401 2 -0.834000 35.995746 29.933955 8.272761
5496 401 3 0.417000 35.714233 29.231194 8.858517
5497 401 3 0.417000 36.856427 29.655346 7.959971
5498 402 2 -0.834000 76.354965 4.249627 11.817589
5499 402 3 0.417000 75.677327 3.611148 11.595368
5500 402 3 0.417000 76.821317 4.400611 10.995426
5501 403 2 -0.834000 105.243221 18.552786 8.191221
5502 403 3 0.417000 106.064679 19.018970 8.035937
5503 403 3 0.417000 105.381752 18.091450 9.018390
5504 404 2 -0.834000 4.303053 4.228359 11.764038
5505 404 3 0.417000 4.780465 4.021505 12.567481
5506 404 3 0.417000 3.393777 4.002702 11.960324
5507 405 2 -0.834000 125.460969 18.533750 8.170573
5508 405 3 0.417000 125.156859 19.396578 8.452132
5509 405 3 0.417000 124.792143 17.927739 8.489406
5510 406 2 -0.834000 110.973010 12.908375 11.700132
5511 406 3 0.417000 110.686346 12.119292 12.159920
5512 406 3 0.417000 110.714802 12.762951 10.789960
5513 407 2 -0.834000 70.598017 38.542400 8.265276
5514 407 3 0.417000 70.867888 37.874082 7.635393
5515 407 3 0.417000 71.225130 39.255063 8.142505
5516 408 2 -0.834000 125.575855 4.233295 8.346300
5517 408 3 0.417000 124.863799 3.691805 8.005717
5518 408 3 0.417000 125.189688 5.103631 8.444396
5519 409 2 -0.834000 4.306496 1.348514 11.838665
5520 409 3 0.417000 4.131406 1.196712 10.909939
5521 409 3 0.417000 5.142485 1.814528 11.852233
5522 410 2 -0.834000 50.396135 1.342863 8.182479
5523 410 3 0.417000 51.271809 1.167605 7.837934
5524 410 3 0.417000 50.545944 1.633554 9.082083
5525 411 2 -0.834000 122.687896 24.202351 11.686884
5526 411 3 0.417000 123.056028 23.364408 11.967172
5527 411 3 0.417000 121.950495 23.964527 11.124825
5528 412 2 -0.834000 142.762640 4.368556 11.837241
5529 412 3 0.417000 142.784114 4.993169 11.112238
5530 412 3 0.417000 141.868020 4.421810 12.173471
5531 413 2 -0.834000 116.880852 9.978309 11.798855
5532 413 3 0.417000 116.043360 10.425910 11.678475
5533 413 3 0.417000 117.300031 10.444019 12.522481
5534 414 2 -0.834000 142.870484 18.603092 8.312002
5535 414 3 0.417000 143.722013 18.930337 8.022104
5536 414 3 0.417000 142.829827 18.829932 9.241045
5537 415 2 -0.834000 33.139794 15.623404 11.739829
5538 415 3 0.417000 33.280697 14.900936 11.127932
5539 415 3 0.417000 32.277353 15.968616 11.509056
5540 416 2 -0.834000 96.706747 7.078755 11.675852
5541 416 3 0.417000 96.663426 7.097765 10.719822
5542 416 3 0.417000 95.866996 7.438679 11.961341
5543 417 2 -0.834000 79.316632 32.817795 11.651034
5544 417 3 0.417000 79.837979 33.147717 12.382868
5545 417 3 0.417000 78.481221 33.279271 11.724237
5546 418 2 -0.834000 44.771023 12.901550 8.343432
5547 418 3 0.417000 43.934846 13.175423 7.966561
5548 418 3 0.417000 44.574821 12.731564 9.264758
5549 419 2 -0.834000 21.539028 12.781357 8.235001
5550 419 3 0.417000 21.068412 13.614856 8.229321
5551 419 3 0.417000 20.904996 12.145502 7.903454
5552 420 2 -0.834000 76.488947 1.382050 8.173030
5553 420 3 0.417000 76.825572 1.931223 8.881072
5554 420 3 0.417000 76.450914 1.964840 7.414649
5555 421 2 -0.834000 102.328276 15.690470 8.220395
5556 421 3 0.417000 101.673808 15.022854 8.425804
5557 421 3 0.417000 102.298208 16.292745 8.963760
5558 422 2 -0.834000 21.717635 24.275747 11.741428
5559 422 3 0.417000 22.210302 23.538487 12.101927
5560 422 3 0.417000 20.870084 24.237678 12.184643
5561 423 2 -0.834000 70.762138 24.293282 11.662508
5562 423 3 0.417000 69.861815 23.993194 11.537615
5563 423 3 0.417000 70.739152 24.786439 12.482568
5564 424 2 -0.834000 79.232944 27.129788 11.696995
5565 424 3 0.417000 79.499177 27.963917 11.310238
5566 424 3 0.417000 79.045659 27.338515 12.612194
5567 425 2 -0.834000 53.394285 38.581392 11.706168
5568 425 3 0.417000 53.553276 37.914681 12.374337
5569 425 3 0.417000 53.951345 39.316200 11.963022
5570 426 2 -0.834000 85.002688 9.960120 8.289557
5571 426 3 0.417000 85.284436 9.756870 9.181487
5572 426 3 0.417000 84.261416 9.375145 8.132863
5573 427 2 -0.834000 44.723837 35.640263 11.663387
5574 427 3 0.417000 44.835786 35.205382 10.818060
5575 427 3 0.417000 45.616016 35.793221 11.974599
5576 428 2 -0.834000 41.853735 12.954613 8.330462
5577 428 3 0.417000 42.510742 13.335615 7.747873
5578 428 3 0.417000 41.523690 12.192679 7.854270
5579 429 2 -0.834000 13.035638 12.763865 11.796178
5580 429 3 0.417000 13.323227 13.307475 12.529671
5581 429 3 0.417000 12.326912 13.263374 11.390677
5582 430 2 -0.834000 36.032597 21.468407 11.663075
5583 430 3 0.417000 36.816381 21.374334 11.121721
5584 430 3 0.417000 35.318127 21.157743 11.106970
5585 431 2 -0.834000 96.586958 29.978334 8.322289
5586 431 3 0.417000 96.836925 30.458390 9.111779
5587 431 3 0.417000 96.694351 29.056767 8.557686
5588 432 2 -0.834000 87.987747 18.635106 8.303123
5589 432 3 0.417000 87.945368 17.913656 7.675472
5590 432 3 0.417000 88.595320 19.260881 7.908799
5591 433 2 -0.834000 79.276376 18.620513 8.336107
5592 433 3 0.417000 79.764250 19.352050 7.957868
5593 433 3 0.417000 79.679293 18.480875 9.193073
5594 434 2 -0.834000 139.957182 21.473659 8.183645
5595 434 3 0.417000 139.540598 20.721219 8.603792
5596 434 3 0.417000 139.227476 22.006783 7.868146
5597 435 2 -0.834000 59.137369 29.915488 8.251199
5598 435 3 0.417000 58.302008 30.382747 8.242602
5599 435 3 0.417000 59.772515 30.564924 8.552952
5600 436 2 -0.834000 87.898782 12.926649 8.242922
5601 436 3 0.417000 87.161819 12.514503 8.693757
5602 436 3 0.417000 88.552799 13.064149 8.928186
5603 437 2 -0.834000 4.308403 12.905008 8.263833
5604 437 3 0.417000 4.393048 12.819546 9.213446
5605 437 3 0.417000 3.946922 13.781624 8.133042
5606 438 2 -0.834000 113.896816 10.029160 8.250214
5607 438 3 0.417000 114.100125 10.668043 8.933387
5608 438 3 0.417000 112.970933 9.824486 8.380909
5609 439 2 -0.834000 90.841713 12.920195 8.278575
5610 439 3 0.417000 90.977209 13.809631 7.951810
5611 439 3 0.417000 91.691278 12.664500 8.637868
5612 440 2 -0.834000 38.937800 1.526274 11.772932
5613 440 3 0.417000 39.492925 2.281467 11.578634
5614 440 3 0.417000 38.803806 1.102479 10.925185
5615 441 2 -0.834000 122.620554 29.990741 8.225984
5616 441 3 0.417000 123.067294 29.155022 8.361000
5617 441 3 0.417000 122.927469 30.545531 8.943092
5618 442 2 -0.834000 50.467938 7.097792 8.328457
5619 442 3 0.417000 51.208450 7.679025 8.155132
5620 442 3 0.417000 50.780725 6.508837 9.015136
5621 443 2 -0.834000 27.323163 24.375756 8.289511
5622 443 3 0.417000 28.019912 24.993240 8.511967
5623 443 3 0.417000 27.529295 24.092005 7.398878
5624 444 2 -0.834000 24.457736 29.924405 8.215010
5625 444 3 0.417000 24.531239 30.526350 7.474407
5626 444 3 0.417000 24.458931 30.491442 8.986177
5627 445 2 -0.834000 21.615436 10.088000 11.757868
5628 445 3 0.417000 21.175284 10.937627 11.732741
5629 445 3 0.417000 22.515381 10.291385 12.012750
5630 446 2 -0.834000 47.600912 38.662666 11.786828
5631 446 3 0.417000 48.291462 39.285398 11.559721
5632 446 3 0.417000 47.955317 37.809471 11.536453
5633 447 2 -0.834000 137.072074 38.521244 11.760673
5634 447 3 0.417000 137.216828 37.580797 11.864779
5635 447 3 0.417000 136.120004 38.615689 11.731103
5636 448 2 -0.834000 142.716641 9.940657 8.277482
5637 448 3 0.417000 143.251262 10.635178 8.662258
5638 448 3 0.417000 143.285356 9.170730 8.279996
5639 449 2 -0.834000 148.495121 21.435978 11.724874
5640 449 3 0.417000 148.398110 21.258211 10.789342
5641 449 3 0.417000 148.673642 20.580102 12.114538
5642 450 2 -0.834000 85.036037 21.330087 8.212674
5643 450 3 0.417000 84.938595 20.552916 7.662454
5644 450 3 0.417000 84.139571 21.577968 8.438807
5645 451 2 -0.834000 7.198979 35.690913 11.770312
5646 451 3 0.417000 6.478646 36.036963 12.297190
5647 451 3 0.417000 6.769359 35.218377 11.057312
5648 452 2 -0.834000 30.385292 12.927358 11.730125
5649 452 3 0.417000 30.450380 12.031955 11.398088
5650 452 3 0.417000 30.030409 13.430011 10.996892
5651 453 2 -0.834000 116.871616 24.227747 11.825893
5652 453 3 0.417000 117.680525 24.174618 12.334887
5653 453 3 0.417000 116.268057 23.633467 12.271741
5654 454 2 -0.834000 12.914919 32.820191 8.311767
5655 454 3 0.417000 12.962353 33.461733 9.020573
5656 454 3 0.417000 13.072823 33.329041 7.516550
5657 455 2 -0.834000 53.460375 21.328880 8.339740
5658 455 3 0.417000 54.362712 21.231796 8.644032
5659 455 3 0.417000 52.986891 21.671000 9.098027
5660 456 2 -0.834000 108.087501 32.907646 8.223469
5661 456 3 0.417000 107.347198 33.407453 8.567528
5662 456 3 0.417000 108.775508 33.014981 8.880246
5663 457 2 -0.834000 1.388640 4.299255 8.295263
5664 457 3 0.417000 1.219045 5.227589 8.455466
5665 457 3 0.417000 1.763610 4.272218 7.414980
5666 458 2 -0.834000 73.529120 18.519991 8.177009
5667 458 3 0.417000 72.891797 19.228043 8.270358
5668 458 3 0.417000 74.269976 18.922189 7.723577
5669 459 2 -0.834000 131.303894 38.633574 11.739195
5670 459 3 0.417000 132.012716 38.223250 11.243779
5671 459 3 0.417000 131.198709 39.496209 11.337912
5672 460 2 -0.834000 73.558334 10.018703 11.666557
5673 460 3 0.417000 72.931950 9.472812 12.141823
5674 460 3 0.417000 73.871844 9.460351 10.955088
5675 461 2 -0.834000 56.208182 1.449055 8.220152
5676 461 3 0.417000 56.588316 0.572680 8.280947
5677 461 3 0.417000 55.902636 1.640158 9.106918
5678 462 2 -0.834000 56.173255 21.331457 11.748071
5679 462 3 0.417000 56.331200 20.509637 12.212719
5680 462 3 0.417000 55.868343 21.935282 12.425312
5681 463 2 -0.834000 59.125321 4.235147 8.158059
5682 463 3 0.417000 58.595746 5.013988 7.987210
5683 463 3 0.417000 59.838452 4.547281 8.715059
5684 464 2 -0.834000 145.713517 32.901943 11.657418
5685 464 3 0.417000 145.774249 31.955146 11.530465
5686 464 3 0.417000 144.944409 33.020498 12.214779
5687 465 2 -0.834000 70.619677 15.643708 8.232693
5688 465 3 0.417000 70.641969 14.749296 7.892454
5689 465 3 0.417000 70.612354 16.197376 7.451905
5690 466 2 -0.834000 119.730908 12.884393 8.302336
5691 466 3 0.417000 119.170018 13.353293 7.684463
5692 466 3 0.417000 120.597767 12.896749 7.896585
5693 467 2 -0.834000 12.989668 12.889847 8.250712
5694 467 3 0.417000 12.789787 13.620856 8.835438
5695 467 3 0.417000 12.540593 13.106405 7.433604
5696 468 2 -0.834000 4.390717 10.006425 8.267733
5697 468 3 0.417000 4.349263 9.469421 7.476443
5698 468 3 0.417000 4.184038 10.891706 7.968075
5699 469 2 -0.834000 93.716996 24.368544 8.338292
5700 469 3 0.417000 94.324025 24.611245 7.639119
5701 469 3 0.417000 92.888586 24.200316 7.889216
5702 470 2 -0.834000 36.090587 24.318157 11.731983
5703 470 3 0.417000 35.925444 25.193978 12.081122
5704 470 3 0.417000 37.029178 24.181488 11.860825
5705 471 2 -0.834000 79.273035 4.251085 11.746257
5706 471 3 0.417000 79.155770 3.716289 10.961098
5707 471 3 0.417000 78.439340 4.709563 11.851059
5708 472 2 -0.834000 90.952899 24.226338 11.707650
5709 472 3 0.417000 91.554292 23.487196 11.798355
5710 472 3 0.417000 90.107216 23.824607 11.508490
5711 473 2 -0.834000 122.683583 9.991672 8.305411
5712 473 3 0.417000 122.138237 10.751055 8.510758
5713 473 3 0.417000 123.539355 10.362136 8.089442
5714 474 2 -0.834000 122.639618 15.686436 11.672140
5715 474 3 0.417000 122.270946 16.566698 11.745975
5716 474 3 0.417000 123.119452 15.695905 10.843948
5717 475 2 -0.834000 47.510712 27.204500 8.334187
5718 475 3 0.417000 47.155768 26.316007 8.362923
5719 475 3 0.417000 48.411392 27.093388 8.029784
5720 476 2 -0.834000 148.513598 15.756227 11.751544
5721 476 3 0.417000 148.177651 16.616064 12.004629
5722 476 3 0.417000 148.432877 15.738216 10.797924
5723 477 2 -0.834000 33.208865 32.838379 11.801044
5724 477 3 0.417000 32.916151 32.001109 12.160946
5725 477 3 0.417000 34.083914 32.964527 12.167931
5726 478 2 -0.834000 137.117856 10.000251 8.310915
5727 478 3 0.417000 136.194649 10.246907 8.366432
5728 478 3 0.417000 137.156098 9.125180 8.696947
5729 479 2 -0.834000 134.083820 18.579661 8.334965
5730 479 3 0.417000 133.259259 18.493957 8.813489
5731 479 3 0.417000 134.699037 18.026060 8.815865
5732 480 2 -0.834000 142.742628 38.491937 8.209636
5733 480 3 0.417000 142.448897 37.768235 7.656273
5734 480 3 0.417000 143.085763 38.068436 8.996488
5735 481 2 -0.834000 131.217708 21.482025 8.186982
5736 481 3 0.417000 131.071327 21.762152 9.090494
5737 481 3 0.417000 130.438968 21.777142 7.715069
5738 482 2 -0.834000 59.088018 38.628163 8.230522
5739 482 3 0.417000 59.276231 37.784918 7.818522
5740 482 3 0.417000 58.994908 38.425043 9.161277
5741 483 2 -0.834000 21.733946 29.906132 11.676344
5742 483 3 0.417000 21.535021 29.757930 10.751846
5743 483 3 0.417000 21.256329 30.705074 11.899515
5744 484 2 -0.834000 18.692594 4.349459 8.260782
5745 484 3 0.417000 19.159216 5.172900 8.117816
5746 484 3 0.417000 17.771943 4.603388 8.325239
5747 485 2 -0.834000 4.398993 7.108871 11.815027
5748 485 3 0.417000 4.475257 6.162229 11.934546
5749 485 3 0.417000 3.456931 7.268379 11.757512
5750 486 2 -0.834000 82.120433 1.433277 8.333108
5751 486 3 0.417000 81.569982 0.826229 8.827809
5752 486 3 0.417000 82.768900 0.874548 7.904686
5753 487 2 -0.834000 41.780384 15.642791 8.213691
5754 487 3 0.417000 41.832113 15.365288 7.299061
5755 487 3 0.417000 41.324460 16.483907 8.183864
5756 488 2 -0.834000 114.037019 12.949894 11.783047
5757 488 3 0.417000 114.025210 13.891535 11.954521
5758 488 3 0.417000 114.115943 12.549279 12.648790
5759 489 2 -0.834000 50.575845 12.814126 8.291003
5760 489 3 0.417000 50.658496 13.286718 9.119289
5761 489 3 0.417000 50.911011 13.422978 7.632828
5762 490 2 -0.834000 116.836807 38.516075 8.179205
5763 490 3 0.417000 117.294915 39.338308 8.353276
5764 490 3 0.417000 117.221352 38.195132 7.363513
5765 491 2 -0.834000 134.162356 35.706532 8.237486
5766 491 3 0.417000 134.529485 36.045979 9.053712
5767 491 3 0.417000 133.266634 35.455659 8.463266
5768 492 2 -0.834000 7.182959 24.227859 8.338020
5769 492 3 0.417000 6.559581 24.745931 8.847170
5770 492 3 0.417000 6.642903 23.762089 7.699560
5771 493 2 -0.834000 142.807846 35.639509 11.746879
5772 493 3 0.417000 142.769300 35.124921 12.553071
5773 493 3 0.417000 143.737176 35.838892 11.633639
5774 494 2 -0.834000 113.903744 1.406316 8.310649
5775 494 3 0.417000 113.722879 0.572820 8.745165
5776 494 3 0.417000 113.959508 1.185186 7.381013
5777 495 2 -0.834000 116.921349 30.003139 8.184449
5778 495 3 0.417000 116.473107 30.276592 7.384115
5779 495 3 0.417000 116.222940 29.673701 8.750070
5780 496 2 -0.834000 93.801488 1.333092 11.776875
5781 496 3 0.417000 93.838571 2.287073 11.707761
5782 496 3 0.417000 94.241537 1.017992 10.987381
5783 497 2 -0.834000 119.700094 29.966637 8.159787
5784 497 3 0.417000 120.516811 29.755363 7.707495
5785 497 3 0.417000 119.876910 29.768653 9.079444
5786 498 2 -0.834000 30.244197 32.772837 11.806057
5787 498 3 0.417000 30.129917 33.344997 12.564876
5788 498 3 0.417000 29.623910 32.057954 11.948943
5789 499 2 -0.834000 61.982636 15.792838 11.798891
5790 499 3 0.417000 62.786501 16.311681 11.827774
5791 499 3 0.417000 62.138679 15.146668 11.110162
5792 500 2 -0.834000 99.574268 7.241561 11.847291
5793 500 3 0.417000 98.860385 6.990031 12.433239
5794 500 3 0.417000 100.285618 7.500527 12.433080
5795 501 2 -0.834000 116.855324 21.429197 8.245271
5796 501 3 0.417000 115.993015 21.737793 8.523523
5797 501 3 0.417000 116.784744 21.344956 7.294401
5798 502 2 -0.834000 139.925325 18.561471 8.200721
5799 502 3 0.417000 139.014780 18.785089 8.008015
5800 502 3 0.417000 139.874177 17.725855 8.664792
5801 503 2 -0.834000 30.273733 35.786196 11.684594
5802 503 3 0.417000 31.047446 35.599607 11.152818
5803 503 3 0.417000 29.884257 36.560417 11.278242
5804 504 2 -0.834000 30.198779 18.668266 8.296118
5805 504 3 0.417000 29.898333 17.999547 8.911567
5806 504 3 0.417000 29.874147 18.374301 7.444983
5807 505 2 -0.834000 134.159290 24.252149 8.218634
5808 505 3 0.417000 133.303316 24.015718 7.861364
5809 505 3 0.417000 134.020159 25.104861 8.630649
5810 506 2 -0.834000 30.260241 21.332062 11.785349
5811 506 3 0.417000 29.998216 20.622019 12.371364
5812 506 3 0.417000 30.967386 20.959793 11.258478
5813 507 2 -0.834000 56.199427 38.644721 8.343327
5814 507 3 0.417000 56.233539 38.043764 7.599070
5815 507 3 0.417000 55.274362 38.878004 8.421212
5816 508 2 -0.834000 102.416318 4.244734 8.286933
5817 508 3 0.417000 102.856526 3.532595 8.750943
5818 508 3 0.417000 102.677105 5.035807 8.758553
5819 509 2 -0.834000 125.414334 35.769204 11.800979
5820 509 3 0.417000 126.115236 36.340423 12.115109
5821 509 3 0.417000 125.054442 36.226571 11.041029
5822 510 2 -0.834000 79.399367 15.626308 8.247619
5823 510 3 0.417000 78.556487 16.043030 8.426862
5824 510 3 0.417000 79.711899 16.050852 7.448671
5825 511 2 -0.834000 96.710966 1.423460 11.747781
5826 511 3 0.417000 97.596193 1.136733 11.523296
5827 511 3 0.417000 96.428295 1.941796 10.994351
5828 512 2 -0.834000 36.032075 10.075864 11.799795
5829 512 3 0.417000 36.734341 9.758022 12.367273
5830 512 3 0.417000 36.199436 9.659142 10.954476
5831 513 2 -0.834000 102.411387 9.946232 8.270409
5832 513 3 0.417000 102.586501 9.015645 8.130502
5833 513 3 0.417000 103.162354 10.393121 7.879807
5834 514 2 -0.834000 53.325770 15.644720 11.671487
5835 514 3 0.417000 53.165715 15.108689 10.894773
5836 514 3 0.417000 53.108483 16.535653 11.397160
5837 515 2 -0.834000 85.173922 35.721554 11.740940
5838 515 3 0.417000 85.301018 34.919733 11.233829
5839 515 3 0.417000 85.696012 35.590244 12.532402
5840 516 2 -0.834000 108.246640 12.932064 8.287206
5841 516 3 0.417000 107.452924 12.773900 8.798312
5842 516 3 0.417000 107.936033 13.037142 7.387921
5843 517 2 -0.834000 67.696090 12.899280 11.846225
5844 517 3 0.417000 68.462086 13.411265 11.586701
5845 517 3 0.417000 68.017727 11.999724 11.906058
5846 518 2 -0.834000 122.563827 4.211049 8.331083
5847 518 3 0.417000 122.497400 4.631300 9.188526
5848 518 3 0.417000 121.665878 4.198460 7.999780
5849 519 2 -0.834000 41.882762 32.836343 11.732416
5850 519 3 0.417000 41.864273 31.917812 12.001101
5851 519 3 0.417000 42.080967 33.317456 12.535831
5852 520 2 -0.834000 1.405405 15.797375 8.314836
5853 520 3 0.417000 1.852843 15.540152 9.120979
5854 520 3 0.417000 0.514387 15.463126 8.417774
5855 521 2 -0.834000 139.866995 7.112446 11.795974
5856 521 3 0.417000 139.213442 7.216368 12.487566
5857 521 3 0.417000 139.386835 6.714354 11.069888
5858 522 2 -0.834000 102.472385 29.927773 11.650098
5859 522 3 0.417000 103.234160 29.417031 11.924093
5860 522 3 0.417000 102.179744 30.368895 12.447597
5861 523 2 -0.834000 27.418847 35.783978 8.348600
5862 523 3 0.417000 28.004866 35.745148 9.104447
5863 523 3 0.417000 27.972562 35.550923 7.603405
5864 524 2 -0.834000 79.292041 9.983311 11.751644
5865 524 3 0.417000 78.964259 9.369035 11.094790
5866 524 3 0.417000 79.798598 9.440731 12.355994
5867 525 2 -0.834000 119.792956 12.873631 11.697721
5868 525 3 0.417000 119.338423 12.134776 12.102351
5869 525 3 0.417000 119.508491 13.635780 12.202141
5870 526 2 -0.834000 137.061039 18.617562 11.763517
5871 526 3 0.417000 137.091355 17.999024 12.493396
5872 526 3 0.417000 136.127526 18.770092 11.616821
5873 527 2 -0.834000 18.698722 27.235091 11.702957
5874 527 3 0.417000 18.818177 26.604806 10.992532
5875 527 3 0.417000 18.439325 28.045182 11.263984
5876 528 2 -0.834000 76.403975 12.910826 8.165786
5877 528 3 0.417000 76.483626 13.849373 7.995443
5878 528 3 0.417000 76.981633 12.752561 8.912443
5879 529 2 -0.834000 15.864425 1.431483 11.842070
5880 529 3 0.417000 16.325296 2.192499 12.195175
5881 529 3 0.417000 15.674919 0.889147 12.607701
5882 530 2 -0.834000 1.360847 27.157826 8.345257
5883 530 3 0.417000 1.178905 26.311621 7.936520
5884 530 3 0.417000 1.286154 27.790449 7.630806
5885 531 2 -0.834000 64.873080 12.899107 8.346027
5886 531 3 0.417000 65.664205 12.945630 7.809196
5887 531 3 0.417000 64.423805 13.728591 8.183730
5888 532 2 -0.834000 108.221547 38.507836 11.699107
5889 532 3 0.417000 107.948794 38.396032 12.609787
5890 532 3 0.417000 107.886192 39.369707 11.452232
5891 533 2 -0.834000 7.226274 35.617391 8.328443
5892 533 3 0.417000 6.978313 36.531869 8.464378
5893 533 3 0.417000 7.420636 35.557934 7.393072
5894 534 2 -0.834000 56.235643 7.212280 8.168201
5895 534 3 0.417000 56.560694 6.388756 8.532045
5896 534 3 0.417000 56.970681 7.557454 7.661441
5897 535 2 -0.834000 53.426180 35.710458 11.687708
5898 535 3 0.417000 53.716280 36.412843 11.105703
5899 535 3 0.417000 53.209414 34.986325 11.100448
5900 536 2 -0.834000 50.518537 35.715905 8.283529
5901 536 3 0.417000 50.666387 34.920585 7.771828
5902 536 3 0.417000 50.524109 35.420082 9.193853
5903 537 2 -0.834000 27.375482 7.127010 8.294965
5904 537 3 0.417000 28.278636 6.970427 8.019238
5905 537 3 0.417000 27.337275 6.794532 9.191754
5906 538 2 -0.834000 36.074609 21.388195 8.282746
5907 538 3 0.417000 36.391115 21.343180 9.184982
5908 538 3 0.417000 36.828417 21.695222 7.779020
5909 539 2 -0.834000 13.007483 1.358997 8.266283
5910 539 3 0.417000 13.144529 2.267183 7.996750
5911 539 3 0.417000 12.683395 1.421618 9.164770
5912 540 2 -0.834000 139.804259 15.800143 11.806690
5913 540 3 0.417000 140.180118 15.825883 12.686633
5914 540 3 0.417000 140.534266 16.018711 11.227424
5915 541 2 -0.834000 79.347583 18.657248 11.683279
5916 541 3 0.417000 78.778969 19.074265 12.330585
5917 541 3 0.417000 80.225623 18.720079 12.059218
5918 542 2 -0.834000 142.839263 32.822989 8.252440
5919 542 3 0.417000 142.097645 32.489498 7.747446
5920 542 3 0.417000 143.287071 32.038071 8.568040
5921 543 2 -0.834000 27.482112 12.798372 8.207558
5922 543 3 0.417000 27.004597 12.895560 7.383686
5923 543 3 0.417000 27.404991 11.868557 8.421397
5924 544 2 -0.834000 7.183179 10.032269 11.747004
5925 544 3 0.417000 6.474371 9.409009 11.906282
5926 544 3 0.417000 6.742556 10.821373 11.431731
5927 545 2 -0.834000 102.438353 29.977512 8.347947
5928 545 3 0.417000 102.353952 30.601940 9.068501
5929 545 3 0.417000 103.361271 29.723802 8.357110
5930 546 2 -0.834000 145.593726 7.142723 11.662856
5931 546 3 0.417000 145.728252 6.383211 12.229667
5932 546 3 0.417000 145.121844 6.796383 10.905487
5933 547 2 -0.834000 111.055095 21.453857 8.206660
5934 547 3 0.417000 110.179496 21.070020 8.253852
5935 547 3 0.417000 111.199655 21.607777 7.273042
5936 548 2 -0.834000 145.625523 9.914214 11.799815
5937 548 3 0.417000 146.057994 10.687069 12.162989
5938 548 3 0.417000 145.129102 9.550298 12.532866
5939 549 2 -0.834000 21.660307 38.540974 8.165702
5940 549 3 0.417000 21.411256 39.089216 8.909770
5941 549 3 0.417000 21.151693 37.737955 8.278409
5942 550 2 -0.834000 145.755453 1.424791 11.817815
5943 550 3 0.417000 145.008323 1.604543 11.247097
5944 550 3 0.417000 145.506807 1.798126 12.663408
5945 551 2 -0.834000 33.210397 4.342724 11.746811
5946 551 3 0.417000 32.332455 4.567843 12.054660
5947 551 3 0.417000 33.154278 3.414668 11.519227
5948 552 2 -0.834000 116.851494 7.157400 8.216498
5949 552 3 0.417000 116.356897 7.210959 7.398734
5950 552 3 0.417000 117.568509 6.553140 8.024168
5951 553 2 -0.834000 64.877451 21.410319 11.757558
5952 553 3 0.417000 64.648719 21.811351 10.919055
5953 553 3 0.417000 64.059996 21.021282 12.068443
5954 554 2 -0.834000 142.721825 29.912978 11.729840
5955 554 3 0.417000 141.889521 29.508712 11.974933
5956 554 3 0.417000 143.077129 29.338521 11.051615
5957 555 2 -0.834000 116.837331 18.594236 11.821647
5958 555 3 0.417000 117.382701 19.132679 12.395130
5959 555 3 0.417000 116.234824 18.145827 12.415067
5960 556 2 -0.834000 131.166932 4.227329 8.198226
5961 556 3 0.417000 131.950837 4.057070 8.720468
5962 556 3 0.417000 131.433455 4.907937 7.580188
5963 557 2 -0.834000 93.832790 27.097055 11.759431
5964 557 3 0.417000 93.500062 27.876663 12.204105
5965 557 3 0.417000 93.258296 26.389869 12.052819
5966 558 2 -0.834000 105.285711 29.976817 11.762727
5967 558 3 0.417000 104.708372 30.416805 12.386684
5968 558 3 0.417000 105.750883 30.688555 11.323096
5969 559 2 -0.834000 134.202132 29.956748 8.200387
5970 559 3 0.417000 133.617665 30.246572 8.900838
5971 559 3 0.417000 135.025954 29.754149 8.643672
5972 560 2 -0.834000 67.845444 35.674290 11.741731
5973 560 3 0.417000 68.563808 35.481463 12.344228
5974 560 3 0.417000 67.094891 35.204166 12.104890
5975 561 2 -0.834000 4.289903 15.693820 8.319561
5976 561 3 0.417000 3.795482 15.291231 9.033495
5977 561 3 0.417000 4.500894 14.966697 7.733893
5978 562 2 -0.834000 30.334348 4.256180 8.181976
5979 562 3 0.417000 30.733276 3.897637 8.974778
5980 562 3 0.417000 30.661534 5.154436 8.133824
5981 563 2 -0.834000 10.185281 15.642018 8.283083
5982 563 3 0.417000 11.004012 15.997496 7.937327
5983 563 3 0.417000 9.659152 16.413203 8.494495
5984 564 2 -0.834000 4.391603 29.967926 8.269487
5985 564 3 0.417000 3.500546 29.987311 8.618591
5986 564 3 0.417000 4.277719 29.992849 7.319412
5987 565 2 -0.834000 47.685856 18.626503 8.218695
5988 565 3 0.417000 47.682217 19.581153 8.148964
5989 565 3 0.417000 47.400135 18.450261 9.115096
5990 566 2 -0.834000 33.266402 7.108645 8.164763
5991 566 3 0.417000 33.688174 6.263651 8.320727
5992 566 3 0.417000 33.892731 7.594012 7.627769
5993 567 2 -0.834000 50.486136 21.476331 8.189435
5994 567 3 0.417000 49.751791 21.680723 8.768394
5995 567 3 0.417000 50.126510 20.855705 7.555618
5996 568 2 -0.834000 90.767759 27.223459 11.811004
5997 568 3 0.417000 91.363337 27.646719 12.429364
5998 568 3 0.417000 91.326063 26.967940 11.076676
5999 569 2 -0.834000 125.531007 30.060061 8.203341
6000 569 3 0.417000 125.139447 30.132131 7.332871
6001 569 3 0.417000 125.520943 29.122118 8.394110
6002 570 2 -0.834000 139.955375 38.512677 11.670703
6003 570 3 0.417000 140.133716 37.733803 12.197753
6004 570 3 0.417000 140.619738 39.145029 11.944536
6005 571 2 -0.834000 128.295434 24.316581 8.330665
6006 571 3 0.417000 128.600881 23.972154 7.491437
6007 571 3 0.417000 127.592816 23.721729 8.592794
6008 572 2 -0.834000 137.098874 9.986099 11.672258
6009 572 3 0.417000 137.225957 9.623567 10.795530
6010 572 3 0.417000 137.552491 9.374947 12.252739
6011 573 2 -0.834000 134.054701 1.335336 8.157279
6012 573 3 0.417000 134.424717 0.569456 8.596310
6013 573 3 0.417000 133.117878 1.292586 8.349025
6014 574 2 -0.834000 53.452632 4.277898 8.206315
6015 574 3 0.417000 53.118398 3.852284 8.995854
6016 574 3 0.417000 53.144435 5.181732 8.272124
6017 575 2 -0.834000 73.623318 38.642355 8.164768
6018 575 3 0.417000 74.043013 39.484073 7.987007
6019 575 3 0.417000 74.328760 38.000512 8.083398
6020 576 2 -0.834000 61.945388 10.058419 8.294266
6021 576 3 0.417000 61.928126 10.054554 9.251302
6022 576 3 0.417000 62.515930 10.792781 8.067494
6023 577 2 -0.834000 64.984963 10.059277 11.788311
6024 577 3 0.417000 65.929977 10.201618 11.734272
6025 577 3 0.417000 64.827685 9.838103 12.706231
6026 578 2 -0.834000 44.653732 15.640633 8.206947
6027 578 3 0.417000 44.714035 16.594881 8.251751
6028 578 3 0.417000 44.084996 15.471106 7.455927
6029 579 2 -0.834000 82.123990 9.961257 8.191817
6030 579 3 0.417000 82.168085 10.734685 8.754041
6031 579 3 0.417000 81.187897 9.821552 8.048836
6032 580 2 -0.834000 62.094254 18.629019 11.809711
6033 580 3 0.417000 62.460593 19.512867 11.780725
6034 580 3 0.417000 61.372286 18.647755 11.181504
6035 581 2 -0.834000 38.949562 18.617046 11.682407
6036 581 3 0.417000 38.405801 17.829487 11.664906
6037 581 3 0.417000 39.258950 18.715123 10.781911
6038 582 2 -0.834000 142.701523 12.842115 11.832204
6039 582 3 0.417000 142.849330 13.393127 11.063588
6040 582 3 0.417000 141.913654 13.203276 12.238476
6041 583 2 -0.834000 111.056816 27.128323 11.784421
6042 583 3 0.417000 110.128825 26.989307 11.595371
6043 583 3 0.417000 111.328294 26.336698 12.249030
6044 584 2 -0.834000 137.073945 15.675687 8.221808
6045 584 3 0.417000 136.225202 15.573204 8.652348
6046 584 3 0.417000 137.570150 16.251552 8.803522
6047 585 2 -0.834000 33.129337 21.499794 11.747177
6048 585 3 0.417000 33.035330 22.409673 12.029160
6049 585 3 0.417000 33.095207 21.539997 10.791431
6050 586 2 -0.834000 67.692804 38.608527 8.226963
6051 586 3 0.417000 67.225222 38.477945 7.402010
6052 586 3 0.417000 68.117798 37.767992 8.397585
6053 587 2 -0.834000 111.002923 12.934298 8.199388
6054 587 3 0.417000 111.939949 12.804213 8.053467
6055 587 3 0.417000 110.736223 12.183711 8.730164
6056 588 2 -0.834000 1.538950 32.891354 11.825851
6057 588 3 0.417000 2.176832 32.566661 11.190310
6058 588 3 0.417000 0.959486 33.457775 11.316322
6059 589 2 -0.834000 88.037289 27.050052 8.344895
6060 589 3 0.417000 87.965637 27.722691 9.022137
6061 589 3 0.417000 88.787167 27.321440 7.815496
6062 590 2 -0.834000 41.822078 21.346666 8.196824
6063 590 3 0.417000 41.215638 20.626476 8.369419
6064 590 3 0.417000 42.299979 21.460104 9.018392
6065 591 2 -0.834000 61.967355 9.975144 11.804936
6066 591 3 0.417000 61.675061 9.562778 12.617801
6067 591 3 0.417000 61.818004 10.910468 11.943121
6068 592 2 -0.834000 125.565268 32.838631 11.715965
6069 592 3 0.417000 125.994729 32.243149 12.330129
6070 592 3 0.417000 126.263838 33.117753 11.124084
6071 593 2 -0.834000 102.351239 12.902111 11.705811
6072 593 3 0.417000 101.986923 12.643757 12.552427
6073 593 3 0.417000 101.716933 12.582692 11.064048
6074 594 2 -0.834000 13.026067 30.035740 8.261322
6075 594 3 0.417000 12.613083 30.780636 7.824508
6076 594 3 0.417000 13.610137 29.663672 7.600520
6077 595 2 -0.834000 93.725300 24.239392 11.744004
6078 595 3 0.417000 93.523308 23.584416 11.075845
6079 595 3 0.417000 93.880288 25.045151 11.251091
6080 596 2 -0.834000 50.461002 38.576860 8.324249
6081 596 3 0.417000 50.916370 39.382726 8.568074
6082 596 3 0.417000 49.535910 38.767630 8.479304
6083 597 2 -0.834000 111.056900 4.195966 11.734306
6084 597 3 0.417000 111.731598 3.522515 11.647832
6085 597 3 0.417000 110.639050 4.010460 12.575270
6086 598 2 -0.834000 73.562283 4.368231 11.780242
6087 598 3 0.417000 74.028585 5.175317 11.997971
6088 598 3 0.417000 74.196044 3.671448 11.950749
6089 599 2 -0.834000 33.173727 38.570065 11.671481
6090 599 3 0.417000 33.498993 39.462147 11.792410
6091 599 3 0.417000 33.946336 38.015887 11.781906
6092 600 2 -0.834000 108.093289 24.357070 11.738641
6093 600 3 0.417000 107.484999 23.649280 11.525924
6094 600 3 0.417000 108.108187 24.381273 12.695419
6095 601 2 -0.834000 93.701518 4.333856 8.230969
6096 601 3 0.417000 93.575252 3.578017 7.657387
6097 601 3 0.417000 93.256073 5.052599 7.782396
6098 602 2 -0.834000 131.202827 7.177164 11.694093
6099 602 3 0.417000 131.718018 7.791752 12.216677
6100 602 3 0.417000 130.384498 7.640723 11.516097
6101 603 2 -0.834000 93.788559 38.513090 11.768994
6102 603 3 0.417000 93.488231 37.605837 11.714900
6103 603 3 0.417000 93.123776 39.014501 11.296890
6104 604 2 -0.834000 85.138599 7.128170 8.253953
6105 604 3 0.417000 85.391236 6.759889 9.100579
6106 604 3 0.417000 85.225982 6.399411 7.639537
6107 605 2 -0.834000 15.954578 12.840793 11.763542
6108 605 3 0.417000 15.697991 11.955852 12.022914
6109 605 3 0.417000 15.147411 13.238880 11.437597
6110 606 2 -0.834000 116.912764 18.489242 8.213678
6111 606 3 0.417000 117.534826 18.372800 8.931808
6112 606 3 0.417000 116.605445 17.604413 8.016533
6113 607 2 -0.834000 148.488528 24.320602 11.691304
6114 607 3 0.417000 148.891220 23.463944 11.833462
6115 607 3 0.417000 147.690952 24.131789 11.196881
6116 608 2 -0.834000 64.915148 38.613744 11.817959
6117 608 3 0.417000 64.106611 39.091349 12.003415
6118 608 3 0.417000 64.816832 37.784588 12.286004
6119 609 2 -0.834000 4.338916 24.304030 8.202850
6120 609 3 0.417000 5.108266 24.081493 7.678626
6121 609 3 0.417000 3.599646 23.957563 7.703178
6122 610 2 -0.834000 137.020650 12.817635 8.239546
6123 610 3 0.417000 137.133763 13.751951 8.414164
6124 610 3 0.417000 136.354477 12.780695 7.553193
6125 611 2 -0.834000 105.192710 24.210441 8.263869
6126 611 3 0.417000 104.258160 24.201156 8.057080
6127 611 3 0.417000 105.604928 23.750768 7.532426
6128 612 2 -0.834000 134.112163 38.569082 11.778270
6129 612 3 0.417000 135.040855 38.680987 11.575192
6130 612 3 0.417000 133.664106 38.726512 10.947190
6131 613 2 -0.834000 33.176399 4.273183 8.153870
6132 613 3 0.417000 33.403645 3.526821 8.708427
6133 613 3 0.417000 32.220950 4.250500 8.100631
6134 614 2 -0.834000 53.428107 32.866605 8.180829
6135 614 3 0.417000 52.559468 32.516667 8.378925
6136 614 3 0.417000 53.259678 33.737501 7.821102
6137 615 2 -0.834000 76.391552 21.516614 8.293384
6138 615 3 0.417000 75.754684 20.895793 7.939531
6139 615 3 0.417000 75.892781 22.322781 8.425876
6140 616 2 -0.834000 13.032535 18.566642 8.214298
6141 616 3 0.417000 13.855831 19.051528 8.271761
6142 616 3 0.417000 12.972395 18.096453 9.045885
6143 617 2 -0.834000 85.117788 24.210456 8.331821
6144 617 3 0.417000 85.788091 24.792370 7.973630
6145 617 3 0.417000 85.543883 23.354693 8.380253
6146 618 2 -0.834000 116.882230 27.128107 11.764514
6147 618 3 0.417000 116.304898 27.815378 11.431982
6148 618 3 0.417000 117.664354 27.185315 11.215660
6149 619 2 -0.834000 90.826387 35.813565 8.234093
6150 619 3 0.417000 91.228998 34.945327 8.216836
6151 619 3 0.417000 90.700218 36.037961 7.312160
6152 620 2 -0.834000 67.806475 15.713270 11.716290
6153 620 3 0.417000 67.099667 16.138770 12.201681
6154 620 3 0.417000 67.378276 15.342149 10.944833
6155 621 2 -0.834000 21.653061 7.057055 8.303678
6156 621 3 0.417000 22.054746 7.809602 7.869450
6157 621 3 0.417000 21.770651 6.333722 7.687890
6158 622 2 -0.834000 4.245837 27.130230 11.844701
6159 622 3 0.417000 4.629707 27.676808 11.159042
6160 622 3 0.417000 4.938164 26.509829 12.072775
6161 623 2 -0.834000 102.420051 18.646819 11.681862
6162 623 3 0.417000 103.118859 18.997718 12.233921
6163 623 3 0.417000 102.863903 18.368723 10.880681
6164 624 2 -0.834000 142.697118 18.635705 11.840823
6165 624 3 0.417000 142.383208 18.635770 12.745086
6166 624 3 0.417000 143.540185 18.184070 11.879486
6167 625 2 -0.834000 73.587918 1.474962 8.296445
6168 625 3 0.417000 73.702486 1.890347 7.441716
6169 625 3 0.417000 74.322225 1.796188 8.819741
6170 626 2 -0.834000 41.870776 38.576458 8.219111
6171 626 3 0.417000 42.447864 38.148902 8.851881
6172 626 3 0.417000 41.345029 37.864503 7.854500
6173 627 2 -0.834000 27.387311 10.060099 8.296207
6174 627 3 0.417000 26.519684 9.702783 8.485362
6175 627 3 0.417000 27.974666 9.306358 8.352067
6176 628 2 -0.834000 64.804271 15.686209 11.729133
6177 628 3 0.417000 65.212095 15.314388 10.947045
6178 628 3 0.417000 63.973292 15.218397 11.811943
6179 629 2 -0.834000 1.414340 21.355629 8.204491
6180 629 3 0.417000 1.829470 22.034074 7.671940
6181 629 3 0.417000 0.512940 21.317574 7.884707
6182 630 2 -0.834000 21.651448 29.943652 8.179759
6183 630 3 0.417000 20.790055 29.530885 8.117651
6184 630 3 0.417000 21.478195 30.878460 8.068634
6185 631 2 -0.834000 70.595400 21.501207 8.272076
6186 631 3 0.417000 69.811270 21.053418 8.589656
6187 631 3 0.417000 71.150328 21.591854 9.046718
6188 632 2 -0.834000 145.659044 4.263423 11.793816
6189 632 3 0.417000 145.277376 3.869649 12.578356
6190 632 3 0.417000 145.809497 5.177912 12.033203
6191 633 2 -0.834000 93.690484 32.849263 11.741504
6192 633 3 0.417000 94.215228 33.649593 11.760179
6193 633 3 0.417000 93.797238 32.471868 12.614664
6194 634 2 -0.834000 18.704159 27.089612 8.297533
6195 634 3 0.417000 18.641887 26.847800 7.373476
6196 634 3 0.417000 19.472547 27.658392 8.345505
6197 635 2 -0.834000 119.773586 35.780303 11.677844
6198 635 3 0.417000 118.871826 35.762310 11.357319
6199 635 3 0.417000 119.695969 35.636391 12.620976
6200 636 2 -0.834000 76.430074 24.198408 8.168483
6201 636 3 0.417000 76.768732 24.707514 7.432036
6202 636 3 0.417000 75.483757 24.172017 8.026996
6203 637 2 -0.834000 82.155260 7.161483 11.653599
6204 637 3 0.417000 81.517148 7.293207 12.354808
6205 637 3 0.417000 81.632069 6.881724 10.902442
6206 638 2 -0.834000 116.912903 1.344966 11.838699
6207 638 3 0.417000 117.803695 1.001874 11.909482
6208 638 3 0.417000 116.853756 1.676055 10.942532
6209 639 2 -0.834000 62.042232 12.772721 8.300849
6210 639 3 0.417000 62.802166 12.425664 7.833640
6211 639 3 0.417000 61.922458 12.176859 9.040332
6212 640 2 -0.834000 82.184923 7.202161 8.277734
6213 640 3 0.417000 82.891506 6.881907 7.717011
6214 640 3 0.417000 82.434612 6.926247 9.159640
6215 641 2 -0.834000 108.181512 12.872013 11.836923
6216 641 3 0.417000 109.101776 12.679229 11.657534
6217 641 3 0.417000 108.105603 12.814930 12.789399
6218 642 2 -0.834000 33.201490 30.008322 11.845443
6219 642 3 0.417000 33.532002 30.793245 12.282352
6220 642 3 0.417000 33.766460 29.903917 11.079846
6221 643 2 -0.834000 96.732739 12.796993 11.764436
6222 643 3 0.417000 97.131705 13.408937 12.382969
6223 643 3 0.417000 96.580373 12.002996 12.276866
6224 644 2 -0.834000 128.464733 30.047457 8.179785
6225 644 3 0.417000 128.685398 29.144996 8.410227
6226 644 3 0.417000 128.193185 30.001518 7.263061
6227 645 2 -0.834000 128.385267 18.622744 8.312260
6228 645 3 0.417000 127.544216 18.194977 8.473136
6229 645 3 0.417000 128.153912 19.501529 8.011523
6230 646 2 -0.834000 76.349684 9.905589 11.695302
6231 646 3 0.417000 76.329598 10.847702 11.863385
6232 646 3 0.417000 75.927700 9.516131 12.461124
6233 647 2 -0.834000 21.609366 18.541255 11.799781
6234 647 3 0.417000 21.859910 19.362659 11.376989
6235 647 3 0.417000 22.422758 18.208951 12.179520
6236 648 2 -0.834000 38.922105 7.156531 8.305531
6237 648 3 0.417000 39.418884 7.963882 8.172765
6238 648 3 0.417000 39.214299 6.576568 7.602326
6239 649 2 -0.834000 41.852647 10.074991 8.249909
6240 649 3 0.417000 41.462254 10.073429 9.123878
6241 649 3 0.417000 42.758286 10.350369 8.392099
6242 650 2 -0.834000 24.523025 32.940929 11.696913
6243 650 3 0.417000 23.649962 32.561632 11.797550
6244 650 3 0.417000 24.437686 33.547933 10.961729
6245 651 2 -0.834000 116.776823 1.377572 8.220603
6246 651 3 0.417000 116.879007 2.300252 7.987254
6247 651 3 0.417000 117.665695 1.078684 8.412446
6248 652 2 -0.834000 15.832660 32.953122 11.655045
6249 652 3 0.417000 16.504546 33.599495 11.871845
6250 652 3 0.417000 15.456715 33.264661 10.831734
6251 653 2 -0.834000 105.263315 27.098421 8.284482
6252 653 3 0.417000 105.521538 26.398531 7.684727
6253 653 3 0.417000 105.134753 26.658910 9.125038
6254 654 2 -0.834000 62.044244 7.050638 11.843982
6255 654 3 0.417000 62.792038 7.607267 11.626725
6256 654 3 0.417000 61.278921 7.600115 11.674902
6257 655 2 -0.834000 85.039176 35.691655 8.269674
6258 655 3 0.417000 85.967301 35.882151 8.405788
6259 655 3 0.417000 85.025557 35.075344 7.537413
6260 656 2 -0.834000 119.683494 7.121982 8.335368
6261 656 3 0.417000 119.658841 7.953523 8.808828
6262 656 3 0.417000 119.354548 6.478564 8.963094
6263 657 2 -0.834000 38.955155 32.917413 11.737276
6264 657 3 0.417000 39.147126 32.417394 12.530598
6265 657 3 0.417000 38.565172 32.279257 11.139863
6266 658 2 -0.834000 47.646134 9.987914 8.291280
6267 658 3 0.417000 46.946475 10.276341 7.705175
6268 658 3 0.417000 48.323527 10.658634 8.204650
6269 659 2 -0.834000 105.340504 4.337789 11.727436
6270 659 3 0.417000 104.936239 3.472211 11.787237
6271 659 3 0.417000 106.268852 4.181563 11.900629
6272 660 2 -0.834000 50.495340 27.114001 11.828527
6273 660 3 0.417000 51.019449 26.639530 11.183222
6274 660 3 0.417000 49.843286 26.477933 12.122595
6275 661 2 -0.834000 145.771937 15.671900 8.181577
6276 661 3 0.417000 144.833771 15.651289 7.992760
6277 661 3 0.417000 146.058001 16.535044 7.882611
6278 662 2 -0.834000 50.418738 4.291970 8.236216
6279 662 3 0.417000 49.527847 4.006186 8.034049
6280 662 3 0.417000 50.979724 3.616072 7.855836
6281 663 2 -0.834000 113.878987 24.285755 8.156956
6282 663 3 0.417000 113.352336 24.794409 7.540399
6283 663 3 0.417000 113.284722 23.607206 8.477348
6284 664 2 -0.834000 116.816973 30.060264 11.834623
6285 664 3 0.417000 117.623849 30.533972 11.632674
6286 664 3 0.417000 116.706966 29.451362 11.104302
6287 665 2 -0.834000 134.167229 21.508592 11.665299
6288 665 3 0.417000 134.832957 21.969733 12.175581
6289 665 3 0.417000 134.515325 21.494473 10.773749
6290 666 2 -0.834000 38.848518 38.546075 11.780291
6291 666 3 0.417000 38.922055 38.143746 10.914869
6292 666 3 0.417000 39.736474 38.513641 12.136259
6293 667 2 -0.834000 10.071556 1.502351 8.212312
6294 667 3 0.417000 10.475285 1.333439 7.361017
6295 667 3 0.417000 9.474337 0.766174 8.344992
6296 668 2 -0.834000 87.993763 38.627402 11.683191
6297 668 3 0.417000 88.754114 38.811284 11.131570
6298 668 3 0.417000 87.418136 39.381808 11.557668
6299 669 2 -0.834000 79.318102 7.192820 8.343308
6300 669 3 0.417000 79.226335 7.563988 7.465786
6301 669 3 0.417000 80.174288 6.764917 8.334558
6302 670 2 -0.834000 88.037205 15.779985 11.760002
6303 670 3 0.417000 88.175913 15.568619 10.836792
6304 670 3 0.417000 87.797184 16.706604 11.760616
6305 671 2 -0.834000 139.994152 12.909272 8.162221
6306 671 3 0.417000 140.142273 13.152646 7.248404
6307 671 3 0.417000 140.266766 11.993165 8.213806
6308 672 2 -0.834000 79.341549 21.411088 8.206217
6309 672 3 0.417000 79.883546 20.728542 7.810489
6310 672 3 0.417000 79.202002 21.115271 9.105801
6311 673 2 -0.834000 139.873242 24.309021 8.303406
6312 673 3 0.417000 139.268201 23.949620 8.952242
6313 673 3 0.417000 139.823771 23.700520 7.566174
6314 674 2 -0.834000 1.347320 35.665471 11.698227
6315 674 3 0.417000 2.274838 35.466227 11.825677
6316 674 3 0.417000 1.343602 36.454025 11.155640
6317 675 2 -0.834000 93.713755 7.197389 11.653131
6318 675 3 0.417000 93.051891 7.108237 10.967405
6319 675 3 0.417000 93.944856 8.126230 11.644309
6320 676 2 -0.834000 33.104288 35.740556 11.690179
6321 676 3 0.417000 33.323306 34.824493 11.860739
6322 676 3 0.417000 33.014197 35.792618 10.738651
6323 677 2 -0.834000 33.268263 21.371973 8.329685
6324 677 3 0.417000 34.134044 21.030790 8.553848
6325 677 3 0.417000 32.667566 20.899736 8.906216
6326 678 2 -0.834000 7.151853 12.796154 8.241420
6327 678 3 0.417000 7.333604 12.466789 7.361240
6328 678 3 0.417000 7.274657 13.743007 8.173452
6329 679 2 -0.834000 10.053146 35.786672 8.285395
6330 679 3 0.417000 10.974975 35.874097 8.042868
6331 679 3 0.417000 10.041622 35.912681 9.234194
6332 680 2 -0.834000 4.259207 4.296977 8.272020
6333 680 3 0.417000 5.027134 3.808792 7.975042
6334 680 3 0.417000 3.927595 4.725809 7.483117
6335 681 2 -0.834000 24.551425 27.083034 11.755268
6336 681 3 0.417000 24.017004 26.294874 11.658159
6337 681 3 0.417000 25.320954 26.919900 11.209883
6338 682 2 -0.834000 125.414680 21.477424 11.746385
6339 682 3 0.417000 125.062565 22.289456 11.381898
6340 682 3 0.417000 125.571357 20.920263 10.983984
6341 683 2 -0.834000 44.644254 18.488160 11.793590
6342 683 3 0.417000 45.414979 17.951744 11.607921
6343 683 3 0.417000 43.912848 17.870878 11.778092
6344 684 2 -0.834000 122.683236 27.069989 11.777925
6345 684 3 0.417000 122.738372 26.329918 12.382481
6346 684 3 0.417000 122.762457 27.842942 12.336942
6347 685 2 -0.834000 70.739957 7.162304 8.237307
6348 685 3 0.417000 70.252468 6.613724 8.851836
6349 685 3 0.417000 70.090943 7.427995 7.585831
6350 686 2 -0.834000 137.100492 35.669136 8.337644
6351 686 3 0.417000 136.629330 36.094732 9.053958
6352 686 3 0.417000 136.745637 34.780527 8.311508
6353 687 2 -0.834000 90.874708 30.089745 8.264656
6354 687 3 0.417000 91.336488 30.899791 8.048285
6355 687 3 0.417000 91.258874 29.432250 7.684700
6356 688 2 -0.834000 15.904186 27.065327 11.757973
6357 688 3 0.417000 16.478788 26.838297 11.026863
6358 688 3 0.417000 15.264485 27.669835 11.381697
6359 689 2 -0.834000 148.548309 4.311153 11.688599
6360 689 3 0.417000 148.484283 5.167748 11.266252
6361 689 3 0.417000 147.884962 3.777613 11.250949
6362 690 2 -0.834000 47.676402 7.167590 11.732865
6363 690 3 0.417000 48.376080 6.622667 12.093062
6364 690 3 0.417000 46.881067 6.851106 12.161250
6365 691 2 -0.834000 44.676207 1.379007 11.847879
6366 691 3 0.417000 44.887694 1.204040 10.930878
6367 691 3 0.417000 45.455474 1.812895 12.195321
6368 692 2 -0.834000 33.254175 12.929607 8.229744
6369 692 3 0.417000 33.862046 13.513044 8.683975
6370 692 3 0.417000 33.205246 12.152943 8.787085
6371 693 2 -0.834000 15.936576 21.422760 11.816457
6372 693 3 0.417000 16.335774 21.104930 12.626308
6373 693 3 0.417000 15.071417 21.734793 12.081724
6374 694 2 -0.834000 111.127353 24.370643 11.697615
6375 694 3 0.417000 111.481293 24.083707 12.539414
6376 694 3 0.417000 111.136424 25.326538 11.746741
6377 695 2 -0.834000 53.281842 24.327793 8.195306
6378 695 3 0.417000 53.318610 24.793466 9.030787
6379 695 3 0.417000 52.558614 23.709066 8.297044
6380 696 2 -0.834000 67.872546 21.474838 8.197525
6381 696 3 0.417000 67.211619 20.791319 8.087031
6382 696 3 0.417000 67.418570 22.286510 7.970972
6383 697 2 -0.834000 90.923487 9.999637 11.761976
6384 697 3 0.417000 90.328128 9.902516 12.505176
6385 697 3 0.417000 91.238221 9.112352 11.589061
6386 698 2 -0.834000 85.114939 12.950741 11.769218
6387 698 3 0.417000 84.258901 13.030446 11.348413
6388 698 3 0.417000 84.948229 12.431550 12.555908
6389 699 2 -0.834000 108.227369 4.287134 8.247371
6390 699 3 0.417000 108.679207 3.675443 7.666073
6391 699 3 0.417000 107.775181 3.728155 8.879273
6392 700 2 -0.834000 73.623874 18.609096 11.762602
6393 700 3 0.417000 73.551649 19.469395 11.349202
6394 700 3 0.417000 74.504678 18.308507 11.538857
6395 701 2 -0.834000 148.646267 38.617682 11.831418
6396 701 3 0.417000 147.864292 38.158408 12.137709
6397 701 3 0.417000 149.080398 37.991972 11.251548
6398 702 2 -0.834000 33.197858 27.083372 11.709220
6399 702 3 0.417000 34.122949 26.984974 11.934514
6400 702 3 0.417000 33.056795 28.029734 11.682150
6401 703 2 -0.834000 62.052602 32.942282 8.291851
6402 703 3 0.417000 61.131904 33.169491 8.161757
6403 703 3 0.417000 62.049418 31.994333 8.424565
6404 704 2 -0.834000 41.843800 24.310971 11.710586
6405 704 3 0.417000 41.425452 24.903961 12.334749
6406 704 3 0.417000 42.371235 23.724673 12.253080
6407 705 2 -0.834000 90.791670 15.627136 11.796829
6408 705 3 0.417000 90.547872 15.708603 10.874789
6409 705 3 0.417000 91.233504 16.451115 12.001944
6410 706 2 -0.834000 142.795368 4.329096 8.323161
6411 706 3 0.417000 142.276821 4.911680 7.768241
6412 706 3 0.417000 143.007510 4.856899 9.093000
6413 707 2 -0.834000 10.020870 21.390986 8.182819
6414 707 3 0.417000 9.679719 21.755730 7.366235
6415 707 3 0.417000 9.524216 20.582757 8.310612
6416 708 2 -0.834000 125.548380 7.156914 8.199841
6417 708 3 0.417000 124.912861 7.724444 7.763657
6418 708 3 0.417000 126.399878 7.475426 7.900285
6419 709 2 -0.834000 105.279613 15.755626 11.661521
6420 709 3 0.417000 104.664233 15.027938 11.751025
6421 709 3 0.417000 106.080182 15.352918 11.325148
6422 710 2 -0.834000 87.981478 1.489848 11.827082
6423 710 3 0.417000 87.068561 1.696103 11.626402
6424 710 3 0.417000 88.289844 2.238181 12.338100
6425 711 2 -0.834000 30.306480 30.004667 8.194892
6426 711 3 0.417000 30.257539 30.856621 7.761290
6427 711 3 0.417000 29.952452 30.160330 9.070486
6428 712 2 -0.834000 99.422903 24.244288 11.670662
6429 712 3 0.417000 98.487258 24.184786 11.863686
6430 712 3 0.417000 99.461955 24.520775 10.755095
6431 713 2 -0.834000 114.014046 24.190630 11.814799
6432 713 3 0.417000 113.892137 23.295600 12.131488
6433 713 3 0.417000 113.430641 24.259345 11.059055
6434 714 2 -0.834000 1.417620 12.848620 11.687214
6435 714 3 0.417000 0.815366 12.167520 11.986589
6436 714 3 0.417000 0.942182 13.299616 10.989507
6437 715 2 -0.834000 99.538649 29.925812 8.233562
6438 715 3 0.417000 100.346873 29.744674 7.753776
6439 715 3 0.417000 98.982702 29.165538 8.062862
6440 716 2 -0.834000 76.488141 15.622397 8.250234
6441 716 3 0.417000 77.160248 14.941555 8.219269
6442 716 3 0.417000 76.441646 15.954670 7.353760
6443 717 2 -0.834000 113.843306 29.948417 11.739395
6444 717 3 0.417000 113.179896 30.566194 12.046755
6445 717 3 0.417000 114.529746 30.500231 11.364518
6446 718 2 -0.834000 15.781913 30.061498 8.273626
6447 718 3 0.417000 15.280224 30.740386 8.724903
6448 718 3 0.417000 15.130372 29.581390 7.762526
6449 719 2 -0.834000 27.473004 24.326282 11.706651
6450 719 3 0.417000 27.442183 23.405459 11.447101
6451 719 3 0.417000 26.697720 24.447173 12.254877
6452 720 2 -0.834000 116.924163 35.662649 8.180930
6453 720 3 0.417000 116.002495 35.485473 7.992865
6454 720 3 0.417000 117.353197 34.810585 8.102519
6455 721 2 -0.834000 47.541507 21.388828 8.322196
6456 721 3 0.417000 48.267457 21.107530 7.765330
6457 721 3 0.417000 47.934463 22.014183 8.931088
6458 722 2 -0.834000 137.075830 7.128195 11.767197
6459 722 3 0.417000 137.282323 7.933467 12.241676
6460 722 3 0.417000 137.615961 7.169418 10.978027
6461 723 2 -0.834000 36.046787 1.444824 8.250205
6462 723 3 0.417000 35.962446 1.151436 9.157422
6463 723 3 0.417000 36.460136 2.305825 8.313865
6464 724 2 -0.834000 50.501931 24.307468 8.207779
6465 724 3 0.417000 50.513516 23.365228 8.375947
6466 724 3 0.417000 50.969997 24.689524 8.950194
6467 725 2 -0.834000 108.144400 9.945142 11.726415
6468 725 3 0.417000 107.278772 9.687641 12.043611
6469 725 3 0.417000 108.031875 10.052004 10.781877
6470 726 2 -0.834000 18.790580 12.917820 8.274063
6471 726 3 0.417000 18.603580 12.538786 9.132897
6472 726 3 0.417000 19.735189 13.072431 8.280500
6473 727 2 -0.834000 67.736754 1.350499 11.817102
6474 727 3 0.417000 68.330680 0.864847 11.244716
6475 727 3 0.417000 67.768751 0.880541 12.650377
6476 728 2 -0.834000 67.787857 24.335188 8.284892
6477 728 3 0.417000 67.310253 23.571258 8.608214
6478 728 3 0.417000 67.147945 24.812397 7.756672
6479 729 2 -0.834000 18.678307 21.337430 11.727875
6480 729 3 0.417000 19.222782 21.262858 10.944154
6481 729 3 0.417000 19.208366 21.846998 12.340745
6482 730 2 -0.834000 131.190524 24.362200 11.680876
6483 730 3 0.417000 130.338859 24.271661 11.253439
6484 730 3 0.417000 131.648715 23.546614 11.478116
6485 731 2 -0.834000 73.498419 7.074498 11.747965
6486 731 3 0.417000 73.782723 6.239305 11.376675
6487 731 3 0.417000 73.594725 7.701134 11.030829
6488 732 2 -0.834000 70.711718 18.594222 8.242486
6489 732 3 0.417000 70.416616 19.319585 8.792937
6490 732 3 0.417000 71.619805 18.808892 8.029115
6491 733 2 -0.834000 99.585265 27.070159 11.789188
6492 733 3 0.417000 100.118304 27.294519 12.551922
6493 733 3 0.417000 99.929957 26.226973 11.495151
6494 734 2 -0.834000 1.474675 21.352133 11.677773
6495 734 3 0.417000 0.622943 21.772283 11.558367
6496 734 3 0.417000 1.312219 20.425645 11.500406
6497 735 2 -0.834000 27.312738 21.344375 11.841160
6498 735 3 0.417000 27.982286 21.754628 12.388545
6499 735 3 0.417000 26.823910 22.078498 11.469214
6500 736 2 -0.834000 50.470884 18.516842 8.170779
6501 736 3 0.417000 50.260584 19.431353 8.359657
6502 736 3 0.417000 51.358846 18.400076 8.508597
6503 737 2 -0.834000 33.136396 9.945360 11.727967
6504 737 3 0.417000 33.547696 9.243545 12.232467
6505 737 3 0.417000 32.467046 9.504330 11.204808
6506 738 2 -0.834000 119.648598 32.803074 11.659247
6507 738 3 0.417000 118.869030 33.321166 11.859461
6508 738 3 0.417000 120.320074 33.141061 12.251798
6509 739 2 -0.834000 142.789772 15.706586 11.755151
6510 739 3 0.417000 142.784693 16.591873 12.119119
6511 739 3 0.417000 143.294639 15.782870 10.945507
6512 740 2 -0.834000 102.477764 18.608516 8.163538
6513 740 3 0.417000 103.096117 18.054191 8.639559
6514 740 3 0.417000 102.120978 19.196570 8.829216
6515 741 2 -0.834000 38.848631 27.122766 11.733336
6516 741 3 0.417000 38.163954 26.466560 11.863119
6517 741 3 0.417000 39.583859 26.632860 11.365012
6518 742 2 -0.834000 137.108719 4.269957 8.323249
6519 742 3 0.417000 136.731339 3.394703 8.235240
6520 742 3 0.417000 138.054368 4.129433 8.276001
6521 743 2 -0.834000 36.135445 27.209096 11.752318
6522 743 3 0.417000 35.467657 27.816480 11.433922
6523 743 3 0.417000 36.417909 26.732318 10.971851
6524 744 2 -0.834000 134.134928 27.204201 11.844046
6525 744 3 0.417000 133.788082 27.866371 11.246167
6526 744 3 0.417000 133.670676 26.401065 11.608090
6527 745 2 -0.834000 12.945421 38.565553 11.774063
6528 745 3 0.417000 11.993785 38.581727 11.672282
6529 745 3 0.417000 13.174056 39.457642 12.035092
6530 746 2 -0.834000 38.926027 9.937152 8.176282
6531 746 3 0.417000 39.457530 9.923951 7.380315
6532 746 3 0.417000 38.536125 9.064006 8.219008
6533 747 2 -0.834000 137.004149 27.147034 11.828154
6534 747 3 0.417000 137.109069 26.983000 12.765339
6535 747 3 0.417000 137.529961 27.929236 11.661083
6536 748 2 -0.834000 7.157211 4.310204 11.682479
6537 748 3 0.417000 7.435608 3.569048 11.144507
6538 748 3 0.417000 7.400730 5.082301 11.171796
6539 749 2 -0.834000 96.641581 21.493046 8.311203
6540 749 3 0.417000 96.745359 20.692152 8.825041
6541 749 3 0.417000 95.700788 21.668714 8.327957
6542 750 2 -0.834000 142.802985 7.191610 8.235657
6543 750 3 0.417000 143.045478 6.290327 8.448068
6544 750 3 0.417000 143.138116 7.709201 8.967790
6545 751 2 -0.834000 119.789286 10.027591 8.268621
6546 751 3 0.417000 120.198144 9.477004 7.600847
6547 751 3 0.417000 118.853953 9.837222 8.196908
6548 752 2 -0.834000 139.941831 21.390027 11.776381
6549 752 3 0.417000 140.490053 21.797996 12.446639
6550 752 3 0.417000 139.128579 21.894626 11.791699
6551 753 2 -0.834000 27.366371 12.932423 11.673094
6552 753 3 0.417000 28.204429 12.900733 11.211697
6553 753 3 0.417000 27.565453 13.366290 12.502767
6554 754 2 -0.834000 4.314292 27.154956 8.288987
6555 754 3 0.417000 4.643023 26.421193 8.808372
6556 754 3 0.417000 3.413109 26.913113 8.075418
6557 755 2 -0.834000 90.814614 27.043986 8.319259
6558 755 3 0.417000 91.556514 27.192183 8.905649
6559 755 3 0.417000 91.115396 26.361309 7.719496
6560 756 2 -0.834000 128.265620 4.238549 8.285225
6561 756 3 0.417000 128.325608 4.514022 7.370485
6562 756 3 0.417000 128.785156 3.435787 8.328672
6563 757 2 -0.834000 73.471331 35.629431 11.774083
6564 757 3 0.417000 74.357723 35.316720 11.593106
6565 757 3 0.417000 73.152917 35.949865 10.930183
6566 758 2 -0.834000 79.332624 35.629458 11.668312
6567 758 3 0.417000 78.532823 35.385916 11.202224
6568 758 3 0.417000 80.042180 35.343805 11.092843
6569 759 2 -0.834000 1.390198 24.194435 8.228967
6570 759 3 0.417000 0.663099 24.796511 8.387282
6571 759 3 0.417000 1.965143 24.308233 8.985750
6572 760 2 -0.834000 111.086141 18.651956 11.722115
6573 760 3 0.417000 110.880970 18.669578 12.656902
6574 760 3 0.417000 111.427756 17.771180 11.567958
6575 761 2 -0.834000 99.589176 1.340807 8.319107
6576 761 3 0.417000 100.221407 1.586497 8.994497
6577 761 3 0.417000 100.102772 1.302088 7.512291
6578 762 2 -0.834000 110.963967 35.767910 11.780437
6579 762 3 0.417000 110.063583 36.085236 11.710830
6580 762 3 0.417000 111.317779 36.216386 12.548498
6581 763 2 -0.834000 53.305638 32.798109 11.845825
6582 763 3 0.417000 52.742801 32.027429 11.919969
6583 763 3 0.417000 54.152106 32.450920 11.564431
6584 764 2 -0.834000 12.981444 32.907221 11.677820
6585 764 3 0.417000 12.121342 33.077123 11.293648
6586 764 3 0.417000 12.890436 32.054091 12.102223
6587 765 2 -0.834000 21.645338 38.578835 11.676290
6588 765 3 0.417000 22.004598 37.712502 11.867683
6589 765 3 0.417000 21.574135 38.603656 10.722064
6590 766 2 -0.834000 113.936563 18.605776 8.210742
6591 766 3 0.417000 113.691697 17.962818 8.876233
6592 766 3 0.417000 113.550053 18.272205 7.401068
6593 767 2 -0.834000 21.719284 1.486065 11.810120
6594 767 3 0.417000 22.420801 0.868662 11.602952
6595 767 3 0.417000 21.034041 0.946978 12.205163
6596 768 2 -0.834000 4.255659 21.447487 8.262795
6597 768 3 0.417000 5.124956 21.490545 7.864424
6598 768 3 0.417000 3.709899 22.005619 7.708840
6599 769 2 -0.834000 73.590782 4.383907 8.227476
6600 769 3 0.417000 72.909623 3.822584 8.597842
6601 769 3 0.417000 73.752679 5.042425 8.903032
6602 770 2 -0.834000 73.513367 27.101425 11.650767
6603 770 3 0.417000 74.086755 26.823197 10.936592
6604 770 3 0.417000 73.381324 28.037675 11.501662
6605 771 2 -0.834000 108.185815 35.616381 8.261193
6606 771 3 0.417000 107.791068 34.761936 8.435348
6607 771 3 0.417000 108.631586 35.508053 7.421083
6608 772 2 -0.834000 96.578446 21.517146 11.819191
6609 772 3 0.417000 96.540887 21.915963 12.688539
6610 772 3 0.417000 95.771796 21.005891 11.754643
6611 773 2 -0.834000 50.554648 38.478244 11.768131
6612 773 3 0.417000 51.402015 38.140641 11.477915
6613 773 3 0.417000 50.493191 39.346589 11.370096
6614 774 2 -0.834000 113.950842 38.569339 11.798053
6615 774 3 0.417000 113.522280 37.904454 12.337028
6616 774 3 0.417000 113.486382 39.380709 12.003447
6617 775 2 -0.834000 62.002334 35.794323 8.226898
6618 775 3 0.417000 62.081812 34.892376 8.537394
6619 775 3 0.417000 62.413956 36.321112 8.911946
6620 776 2 -0.834000 50.433767 27.069681 8.256524
6621 776 3 0.417000 49.488671 26.918478 8.243795
6622 776 3 0.417000 50.679992 27.127624 7.333352
6623 777 2 -0.834000 24.451333 35.800921 8.263712
6624 777 3 0.417000 23.827162 35.271343 8.759889
6625 777 3 0.417000 25.217535 35.236288 8.161950
6626 778 2 -0.834000 33.184527 18.625614 8.274672
6627 778 3 0.417000 32.899983 19.037842 7.458991
6628 778 3 0.417000 33.430777 19.357516 8.840281
6629 779 2 -0.834000 96.548136 30.011794 11.797511
6630 779 3 0.417000 96.279413 30.742471 11.240617
6631 779 3 0.417000 97.202646 29.543294 11.279480
6632 780 2 -0.834000 139.825175 24.339903 11.705295
6633 780 3 0.417000 138.985019 24.238235 11.258044
6634 780 3 0.417000 140.008145 23.474809 12.071855
6635 781 2 -0.834000 105.380000 7.069777 8.157320
6636 781 3 0.417000 105.457646 7.931963 8.565778
6637 781 3 0.417000 106.217042 6.939030 7.711789
6638 782 2 -0.834000 30.238262 38.588869 11.676117
6639 782 3 0.417000 30.308902 37.637595 11.755610
6640 782 3 0.417000 29.922278 38.732340 10.784039
6641 783 2 -0.834000 61.976454 1.423699 11.813476
6642 783 3 0.417000 62.485960 0.717661 11.415799
6643 783 3 0.417000 62.627697 1.973892 12.248679
6644 784 2 -0.834000 148.622658 30.093020 11.789402
6645 784 3 0.417000 147.673447 29.969610 11.788967
6646 784 3 0.417000 148.816103 30.463502 12.650538
6647 785 2 -0.834000 70.676556 27.121219 8.224749
6648 785 3 0.417000 70.281736 26.415818 7.712149
6649 785 3 0.417000 71.408017 27.427167 7.688473
6650 786 2 -0.834000 44.632729 4.355030 11.693670
6651 786 3 0.417000 45.067703 3.741016 12.285292
6652 786 3 0.417000 44.806235 4.008678 10.818360
6653 787 2 -0.834000 102.425083 15.684856 11.801074
6654 787 3 0.417000 101.886398 15.039895 12.259413
6655 787 3 0.417000 103.273536 15.255234 11.692516
6656 788 2 -0.834000 30.286426 1.501067 11.805622
6657 788 3 0.417000 29.956394 1.854461 10.979532
6658 788 3 0.417000 29.712020 0.759390 11.995896
6659 789 2 -0.834000 50.494763 12.908520 11.722698
6660 789 3 0.417000 50.353437 12.165901 11.135522
6661 789 3 0.417000 51.076295 13.492307 11.235619
6662 790 2 -0.834000 128.329230 7.087331 11.713956
6663 790 3 0.417000 128.372725 6.391883 12.370228
6664 790 3 0.417000 129.103737 7.624248 11.881561
6665 791 2 -0.834000 122.685311 24.275416 8.161289
6666 791 3 0.417000 122.468523 25.167625 8.431840
6667 791 3 0.417000 122.980714 23.846231 8.964264
6668 792 2 -0.834000 108.141603 7.240168 11.743314
6669 792 3 0.417000 108.180933 6.551265 12.406713
6670 792 3 0.417000 107.238679 7.555955 11.778500
6671 793 2 -0.834000 24.539232 27.086924 8.195043
6672 793 3 0.417000 24.792401 27.590841 7.421607
6673 793 3 0.417000 23.586501 27.017016 8.134645
6674 794 2 -0.834000 137.077442 35.618744 11.777568
6675 794 3 0.417000 136.173542 35.376123 11.978397
6676 794 3 0.417000 137.140967 35.540939 10.825653
6677 795 2 -0.834000 10.189962 24.294121 11.701418
6678 795 3 0.417000 10.589881 24.943220 11.122654
6679 795 3 0.417000 9.838739 23.628872 11.109540
6680 796 2 -0.834000 131.282958 7.055423 8.163923
6681 796 3 0.417000 130.563713 7.365445 7.613647
6682 796 3 0.417000 131.131002 6.114268 8.249754
6683 797 2 -0.834000 7.215197 4.231099 8.269406
6684 797 3 0.417000 7.136117 5.150964 8.016767
6685 797 3 0.417000 7.691117 4.250319 9.099685
6686 798 2 -0.834000 44.615707 29.935917 11.662724
6687 798 3 0.417000 45.405518 30.396236 11.378931
6688 798 3 0.417000 44.123862 29.783337 10.855854
6689 799 2 -0.834000 27.453359 7.201777 11.788520
6690 799 3 0.417000 27.999856 7.984311 11.716321
6691 799 3 0.417000 27.206092 7.166160 12.712545
6692 800 2 -0.834000 145.723926 38.642795 11.665326
6693 800 3 0.417000 146.409041 39.051667 11.136484
6694 800 3 0.417000 145.001528 39.270579 11.649203
6695 801 2 -0.834000 93.839063 1.341995 8.263377
6696 801 3 0.417000 94.779721 1.377192 8.089724
6697 801 3 0.417000 93.744927 1.695449 9.147934
6698 802 2 -0.834000 148.602433 38.584189 8.250160
6699 802 3 0.417000 147.858481 39.176481 8.140815
6700 802 3 0.417000 148.679177 38.467563 9.197124
6701 803 2 -0.834000 15.777393 18.493252 8.262738
6702 803 3 0.417000 15.270900 17.957550 8.873246
6703 803 3 0.417000 16.690485 18.289737 8.465414
6704 804 2 -0.834000 56.305783 27.220679 8.317021
6705 804 3 0.417000 56.149539 27.037564 9.243459
6706 804 3 0.417000 56.589797 26.382902 7.951373
6707 805 2 -0.834000 111.129151 18.523447 8.166525
6708 805 3 0.417000 111.522472 19.391505 8.256000
6709 805 3 0.417000 110.628620 18.569573 7.351926
6710 806 2 -0.834000 96.607647 18.569489 11.693032
6711 806 3 0.417000 96.530899 17.755756 12.191210
6712 806 3 0.417000 96.759752 18.285599 10.791643
6713 807 2 -0.834000 87.928899 35.687735 11.831605
6714 807 3 0.417000 88.150824 34.771920 11.663489
6715 807 3 0.417000 87.495624 35.676905 12.685061
6716 808 2 -0.834000 111.073108 4.232771 8.328451
6717 808 3 0.417000 112.022254 4.356579 8.323382
6718 808 3 0.417000 110.727046 5.012579 7.894432
6719 809 2 -0.834000 111.025657 29.984723 8.298385
6720 809 3 0.417000 110.396052 29.407128 8.729908
6721 809 3 0.417000 111.859350 29.795267 8.728843
6722 810 2 -0.834000 15.938359 32.796230 8.175192
6723 810 3 0.417000 16.587826 32.910095 8.869065
6724 810 3 0.417000 15.115025 33.087549 8.566964
6725 811 2 -0.834000 30.335237 29.916816 11.736372
6726 811 3 0.417000 29.521287 29.487990 12.000616
6727 811 3 0.417000 30.178050 30.194828 10.834023
6728 812 2 -0.834000 38.930623 35.710324 8.316244
6729 812 3 0.417000 39.626033 35.372931 8.880870
6730 812 3 0.417000 39.144407 35.374838 7.445625
6731 813 2 -0.834000 4.357646 12.788588 11.831005
6732 813 3 0.417000 3.806497 13.295562 12.427197
6733 813 3 0.417000 5.192618 12.702253 12.291005
6734 814 2 -0.834000 18.786091 15.738162 11.838586
6735 814 3 0.417000 18.355211 16.070667 12.625996
6736 814 3 0.417000 19.437993 15.118126 12.165405
6737 815 2 -0.834000 44.696477 27.089739 11.786415
6738 815 3 0.417000 43.989244 26.649698 11.314804
6739 815 3 0.417000 44.311829 27.915769 12.079589
6740 816 2 -0.834000 79.283907 38.556482 8.341750
6741 816 3 0.417000 79.627802 39.157670 7.681038
6742 816 3 0.417000 80.038957 38.346439 8.891307
6743 817 2 -0.834000 33.100017 12.946102 11.699645
6744 817 3 0.417000 32.478135 13.428455 11.154823
6745 817 3 0.417000 32.662322 12.115345 11.885379
6746 818 2 -0.834000 82.209117 18.489233 8.288856
6747 818 3 0.417000 81.932022 19.405302 8.305240
6748 818 3 0.417000 83.132869 18.522336 8.040223
6749 819 2 -0.834000 108.161233 30.008789 8.222116
6750 819 3 0.417000 109.106601 30.067643 8.084103
6751 819 3 0.417000 107.903681 29.200972 7.777896
6752 820 2 -0.834000 102.341862 4.274444 11.812749
6753 820 3 0.417000 102.038489 3.381904 11.646711
6754 820 3 0.417000 102.689328 4.247867 12.704261
6755 821 2 -0.834000 96.683929 32.916783 8.301671
6756 821 3 0.417000 95.851264 33.258394 8.627556
6757 821 3 0.417000 97.330882 33.208501 8.943998
6758 822 2 -0.834000 76.367960 21.440842 11.654053
6759 822 3 0.417000 76.536771 21.879630 12.487840
6760 822 3 0.417000 77.016406 20.737707 11.617288
6761 823 2 -0.834000 90.922847 1.373079 8.331733
6762 823 3 0.417000 90.050759 1.291665 8.717823
6763 823 3 0.417000 91.485529 1.630577 9.062018
6764 824 2 -0.834000 30.338817 7.071046 8.314598
6765 824 3 0.417000 30.108458 6.944732 9.235039
6766 824 3 0.417000 30.795178 7.912218 8.294677
6767 825 2 -0.834000 10.095517 38.667198 8.342646
6768 825 3 0.417000 10.322904 38.013881 9.004238
6769 825 3 0.417000 9.428821 39.211277 8.761844
6770 826 2 -0.834000 21.649512 9.999403 8.280532
6771 826 3 0.417000 20.859531 10.182163 8.789219
6772 826 3 0.417000 22.233895 10.732662 8.473037
6773 827 2 -0.834000 85.108747 7.159336 11.802695
6774 827 3 0.417000 84.449658 7.807565 12.050957
6775 827 3 0.417000 84.608190 6.361645 11.631340
6776 828 2 -0.834000 1.476884 7.234829 8.276858
6777 828 3 0.417000 1.868716 8.062644 7.998607
6778 828 3 0.417000 1.252845 7.372728 9.197196
6779 829 2 -0.834000 44.618110 7.200326 8.234471
6780 829 3 0.417000 44.887763 7.448402 7.350176
6781 829 3 0.417000 45.003251 7.870070 8.799573
6782 830 2 -0.834000 99.583320 21.408419 11.681048
6783 830 3 0.417000 98.955413 21.878082 11.132066
6784 830 3 0.417000 99.092512 21.188764 12.472938
6785 831 2 -0.834000 79.403969 12.804546 11.849732
6786 831 3 0.417000 79.960215 12.586861 12.597687
6787 831 3 0.417000 78.935371 11.992952 11.654892
6788 832 2 -0.834000 136.946604 29.906388 11.819721
6789 832 3 0.417000 135.990765 29.956475 11.809991
6790 832 3 0.417000 137.235155 30.768408 11.519900
6791 833 2 -0.834000 114.013445 27.098138 11.808974
6792 833 3 0.417000 114.745076 27.698880 11.950601
6793 833 3 0.417000 113.593864 27.024663 12.666170
6794 834 2 -0.834000 59.054613 35.702187 8.314013
6795 834 3 0.417000 59.452658 36.230059 7.621811
6796 834 3 0.417000 58.308840 36.222131 8.613534
6797 835 2 -0.834000 139.836480 9.921428 11.825936
6798 835 3 0.417000 140.708056 9.912241 11.430331
6799 835 3 0.417000 139.262144 9.562355 11.149597
6800 836 2 -0.834000 4.397465 9.968059 11.672227
6801 836 3 0.417000 4.714920 9.227485 12.188952
6802 836 3 0.417000 3.740823 10.385664 12.229595
6803 837 2 -0.834000 44.738817 32.941404 11.733257
6804 837 3 0.417000 43.783148 32.984967 11.701154
6805 837 3 0.417000 45.001832 32.771561 10.828708
6806 838 2 -0.834000 131.334560 27.198746 8.268787
6807 838 3 0.417000 131.752756 26.511962 7.749487
6808 838 3 0.417000 130.859246 27.728047 7.628358
6809 839 2 -0.834000 93.704345 35.758655 11.819110
6810 839 3 0.417000 94.065321 34.887788 11.653222
6811 839 3 0.417000 94.259733 36.121171 12.509297
6812 840 2 -0.834000 82.141204 32.890850 11.738479
6813 840 3 0.417000 81.911012 32.431251 10.931006
6814 840 3 0.417000 82.888858 32.404874 12.086436
6815 841 2 -0.834000 139.956921 38.485863 8.294948
6816 841 3 0.417000 139.431019 38.187616 7.552850
6817 841 3 0.417000 140.125707 37.692773 8.803624
6818 842 2 -0.834000 76.504384 15.669218 11.670809
6819 842 3 0.417000 76.086918 16.530207 11.645244
6820 842 3 0.417000 75.869582 15.082416 11.259808
6821 843 2 -0.834000 10.067468 27.219753 8.292350
6822 843 3 0.417000 10.812888 27.393033 8.867289
6823 843 3 0.417000 10.439020 27.222628 7.410209
6824 844 2 -0.834000 53.447904 24.221704 11.729414
6825 844 3 0.417000 53.488714 25.169906 11.853823
6826 844 3 0.417000 54.161479 23.878189 12.267038
6827 845 2 -0.834000 30.377744 27.066896 11.715963
6828 845 3 0.417000 30.500861 26.285814 12.255393
6829 845 3 0.417000 30.785357 27.772284 12.218469
6830 846 2 -0.834000 93.795624 21.386552 8.319405
6831 846 3 0.417000 93.202518 21.173891 9.039983
6832 846 3 0.417000 93.366538 22.108766 7.860576
6833 847 2 -0.834000 21.722085 32.771349 8.193542
6834 847 3 0.417000 21.862828 32.702257 9.137814
6835 847 3 0.417000 21.020856 32.146468 8.009064
6836 848 2 -0.834000 44.718090 30.048023 8.213200
6837 848 3 0.417000 44.333557 29.185719 8.055727
6838 848 3 0.417000 44.725406 30.468212 7.353189
6839 849 2 -0.834000 102.369536 21.365871 11.820641
6840 849 3 0.417000 101.524670 21.275578 12.261415
6841 849 3 0.417000 102.959935 21.694741 12.498509
6842 850 2 -0.834000 47.676514 15.643699 8.242398
6843 850 3 0.417000 48.422701 15.068451 8.411297
6844 850 3 0.417000 48.069774 16.484021 8.006947
6845 851 2 -0.834000 7.151132 7.102028 11.723742
6846 851 3 0.417000 6.497239 7.245066 12.407991
6847 851 3 0.417000 7.982060 7.347062 12.130864
6848 852 2 -0.834000 108.199212 35.633422 11.835572
6849 852 3 0.417000 107.812244 36.498587 11.969648
6850 852 3 0.417000 109.087418 35.711211 12.183813
6851 853 2 -0.834000 105.343715 21.337349 11.653170
6852 853 3 0.417000 106.225418 21.126251 11.346136
6853 853 3 0.417000 104.761959 20.903039 11.029337
6854 854 2 -0.834000 53.399017 27.159367 8.248017
6855 854 3 0.417000 54.136025 27.667754 8.586535
6856 854 3 0.417000 53.072822 27.672608 7.508820
6857 855 2 -0.834000 27.433878 30.048299 11.794446
6858 855 3 0.417000 26.647764 30.218870 11.275638
6859 855 3 0.417000 27.630551 29.125073 11.635684
6860 856 2 -0.834000 18.837500 29.981673 8.232032
6861 856 3 0.417000 19.665256 30.329189 7.899942
6862 856 3 0.417000 18.772561 30.326402 9.122637
6863 857 2 -0.834000 15.807618 35.617777 8.327646
6864 857 3 0.417000 15.364605 34.826851 8.020389
6865 857 3 0.417000 15.834300 35.523378 9.279806
6866 858 2 -0.834000 12.942874 35.694871 11.792330
6867 858 3 0.417000 12.964401 36.064241 12.675128
6868 858 3 0.417000 12.238724 35.047089 11.820325
6869 859 2 -0.834000 99.474398 38.532418 8.266467
6870 859 3 0.417000 99.304770 39.058248 7.484827
6871 859 3 0.417000 99.856160 39.148349 8.891861
6872 860 2 -0.834000 105.328618 38.613499 11.732327
6873 860 3 0.417000 105.296006 39.429775 11.233467
6874 860 3 0.417000 106.189314 38.622385 12.151081
6875 861 2 -0.834000 99.533792 24.192134 8.313631
6876 861 3 0.417000 99.814160 24.996713 7.877421
6877 861 3 0.417000 100.281571 23.600521 8.229656
6878 862 2 -0.834000 33.131447 38.479336 8.216377
6879 862 3 0.417000 33.294196 39.166082 7.569752
6880 862 3 0.417000 32.514431 37.886758 7.786989
6881 863 2 -0.834000 128.295847 38.514668 11.834845
6882 863 3 0.417000 128.926305 38.493768 11.114903
6883 863 3 0.417000 128.834002 38.587640 12.623068
6884 864 2 -0.834000 64.944201 7.129184 11.777366
6885 864 3 0.417000 65.437702 7.944430 11.687573
6886 864 3 0.417000 64.240052 7.341150 12.390127
6887 865 2 -0.834000 41.843905 4.240031 11.751812
6888 865 3 0.417000 42.402729 4.987593 11.964177
6889 865 3 0.417000 41.381233 4.504483 10.956682
6890 866 2 -0.834000 105.247037 24.190565 11.841266
6891 866 3 0.417000 105.421638 24.880155 12.481744
6892 866 3 0.417000 106.069176 23.703877 11.782487
6893 867 2 -0.834000 47.601415 4.226610 11.758108
6894 867 3 0.417000 47.650268 3.434141 11.223470
6895 867 3 0.417000 48.054432 3.997031 12.569465
6896 868 2 -0.834000 10.128875 4.234394 11.735594
6897 868 3 0.417000 9.951688 5.079109 12.149470
6898 868 3 0.417000 9.460148 3.648457 12.090155
6899 869 2 -0.834000 119.627201 38.527295 8.244039
6900 869 3 0.417000 120.508827 38.799592 8.498640
6901 869 3 0.417000 119.414308 39.077655 7.490373
6902 870 2 -0.834000 88.062513 32.954717 11.715633
6903 870 3 0.417000 87.959379 33.657790 11.074319
6904 870 3 0.417000 88.388726 33.392837 12.501679
6905 871 2 -0.834000 15.826087 7.047916 11.650088
6906 871 3 0.417000 16.553637 7.021683 11.028627
6907 871 3 0.417000 15.425320 6.180935 11.587143
6908 872 2 -0.834000 67.808763 15.790346 8.248940
6909 872 3 0.417000 68.522730 16.322558 8.599984
6910 872 3 0.417000 67.541677 16.244233 7.449639
6911 873 2 -0.834000 53.392655 9.989024 8.183360
6912 873 3 0.417000 53.292586 9.288403 7.538886
6913 873 3 0.417000 52.586460 10.499770 8.109737
6914 874 2 -0.834000 114.040054 15.809450 8.224201
6915 874 3 0.417000 113.196996 15.381374 8.373313
6916 874 3 0.417000 114.688128 15.179720 8.539908
6917 875 2 -0.834000 145.625846 1.458741 8.210290
6918 875 3 0.417000 146.266711 1.036718 8.782497
6919 875 3 0.417000 146.143625 2.053166 7.667339
6920 876 2 -0.834000 21.699082 4.237250 11.700363
6921 876 3 0.417000 22.345141 4.630236 12.287221
6922 876 3 0.417000 21.292532 4.982198 11.257642
6923 877 2 -0.834000 87.925737 7.065836 8.253973
6924 877 3 0.417000 88.091199 6.435780 8.955318
6925 877 3 0.417000 88.682524 6.983272 7.673724
6926 878 2 -0.834000 13.055535 7.109984 8.159215
6927 878 3 0.417000 13.867563 7.554340 8.402917
6928 878 3 0.417000 12.594726 6.980500 8.988142
6929 879 2 -0.834000 70.590666 24.297022 8.196666
6930 879 3 0.417000 71.187665 23.838617 8.788010
6931 879 3 0.417000 70.037238 24.822601 8.774348
6932 880 2 -0.834000 33.102341 29.926246 8.195638
6933 880 3 0.417000 32.494221 30.454013 8.713213
6934 880 3 0.417000 33.752179 29.619593 8.828020
6935 881 2 -0.834000 110.979053 24.379334 8.161206
6936 881 3 0.417000 111.885439 24.109914 8.012513
6937 881 3 0.417000 110.900056 24.440824 9.113157
6938 882 2 -0.834000 70.754385 30.050130 8.187700
6939 882 3 0.417000 70.442714 29.585420 7.411081
6940 882 3 0.417000 71.498015 29.531788 8.495221
6941 883 2 -0.834000 73.578110 12.824911 11.728215
6942 883 3 0.417000 74.532778 12.758215 11.748003
6943 883 3 0.417000 73.287329 12.335243 12.497568
6944 884 2 -0.834000 119.684287 4.336749 11.683634
6945 884 3 0.417000 119.112512 4.442105 12.444032
6946 884 3 0.417000 120.356550 3.719637 11.972541
6947 885 2 -0.834000 88.027404 7.083519 11.750988
6948 885 3 0.417000 88.233783 7.736826 11.082535
6949 885 3 0.417000 88.283888 6.249099 11.358314
6950 886 2 -0.834000 93.844593 10.001743 11.660507
6951 886 3 0.417000 94.774580 10.094944 11.867072
6952 886 3 0.417000 93.409933 9.984420 12.513151
6953 887 2 -0.834000 128.328295 1.442501 11.682643
6954 887 3 0.417000 128.828190 1.353751 12.494098
6955 887 3 0.417000 127.560000 0.886435 11.812040
6956 888 2 -0.834000 96.670332 32.904977 11.811296
6957 888 3 0.417000 96.719007 32.630431 10.895606
6958 888 3 0.417000 97.252013 33.663208 11.865747
6959 889 2 -0.834000 82.258334 38.482647 8.225574
6960 889 3 0.417000 81.753467 38.998191 8.854506
6961 889 3 0.417000 83.083937 38.298862 8.673721
6962 890 2 -0.834000 137.046338 32.920431 8.194587
6963 890 3 0.417000 137.185185 32.862476 7.249286
6964 890 3 0.417000 137.774995 32.429717 8.574706
6965 891 2 -0.834000 96.732710 7.174267 8.346150
6966 891 3 0.417000 96.933075 8.076030 8.596967
6967 891 3 0.417000 95.800680 7.072913 8.539231
6968 892 2 -0.834000 142.788618 27.218895 11.782326
6969 892 3 0.417000 142.566405 27.960893 12.344723
6970 892 3 0.417000 141.950006 26.932317 11.420614
6971 893 2 -0.834000 47.597236 30.032037 8.202632
6972 893 3 0.417000 46.886950 29.903722 8.831330
6973 893 3 0.417000 48.111079 29.226039 8.253273
6974 894 2 -0.834000 59.124909 32.933416 8.186692
6975 894 3 0.417000 59.776881 33.076255 8.872812
6976 894 3 0.417000 59.602194 33.074313 7.369025
6977 895 2 -0.834000 105.298726 15.635498 8.223535
6978 895 3 0.417000 104.620652 14.961700 8.272970
6979 895 3 0.417000 105.628105 15.710663 9.119130
6980 896 2 -0.834000 148.641576 12.949069 8.278970
6981 896 3 0.417000 148.802662 13.891600 8.322766
6982 896 3 0.417000 148.649664 12.661542 9.191929
6983 897 2 -0.834000 108.106383 18.571163 11.655604
6984 897 3 0.417000 108.363361 19.469960 11.449796
6985 897 3 0.417000 107.344043 18.406476 11.100674
6986 898 2 -0.834000 96.708294 27.160254 11.813894
6987 898 3 0.417000 96.567029 27.582801 12.661083
6988 898 3 0.417000 95.949092 26.588239 11.701450
6989 899 2 -0.834000 73.523421 30.056797 11.659565
6990 899 3 0.417000 73.771472 30.672908 10.970284
6991 899 3 0.417000 74.333231 29.901935 12.145835
6992 900 2 -0.834000 119.617907 35.745318 8.270705
6993 900 3 0.417000 119.028787 35.797082 7.518050
6994 900 3 0.417000 120.378743 35.262916 7.947210
6995 901 2 -0.834000 30.359040 15.744657 11.699303
6996 901 3 0.417000 31.243124 15.436218 11.500578
6997 901 3 0.417000 29.900081 14.967896 12.019040
6998 902 2 -0.834000 73.639945 15.777157 8.229385
6999 902 3 0.417000 74.269771 16.176956 8.829145
7000 902 3 0.417000 73.007984 15.340902 8.800821
7001 903 2 -0.834000 56.327201 30.062935 8.161760
7002 903 3 0.417000 56.433626 29.111720 8.151986
7003 903 3 0.417000 57.152049 30.400309 7.812422
7004 904 2 -0.834000 99.458504 12.882067 11.717390
7005 904 3 0.417000 99.156023 11.978740 11.623918
7006 904 3 0.417000 98.892427 13.386383 11.133050
7007 905 2 -0.834000 4.332770 35.687820 8.300060
7008 905 3 0.417000 5.035408 35.171999 7.904511
7009 905 3 0.417000 3.641669 35.051356 8.483158
7010 906 2 -0.834000 88.047234 21.460263 8.231213
7011 906 3 0.417000 87.772805 21.838547 7.395855
7012 906 3 0.417000 88.015597 22.191712 8.847826
7013 907 2 -0.834000 67.880241 18.497912 8.180962
7014 907 3 0.417000 68.778019 18.829616 8.195062
7015 907 3 0.417000 67.801223 17.985054 8.985303
7016 908 2 -0.834000 142.704827 30.065810 8.178669
7017 908 3 0.417000 142.344746 29.996082 9.062813
7018 908 3 0.417000 141.976026 30.386349 7.647316
7019 909 2 -0.834000 128.423443 30.042995 11.788567
7020 909 3 0.417000 128.719013 29.760298 12.653988
7021 909 3 0.417000 128.030331 30.902813 11.938258
7022 910 2 -0.834000 24.495023 38.537114 8.302468
7023 910 3 0.417000 23.835894 39.231177 8.294949
7024 910 3 0.417000 24.025889 37.764019 8.616265
7025 911 2 -0.834000 93.696335 12.842311 8.208353
7026 911 3 0.417000 94.398487 13.465646 8.394547
7027 911 3 0.417000 93.910716 12.490364 7.344404
7028 912 2 -0.834000 53.332814 1.499612 8.243836
7029 912 3 0.417000 53.890376 1.184323 8.955137
7030 912 3 0.417000 52.994225 0.703834 7.833558
7031 913 2 -0.834000 122.597990 38.617605 11.660927
7032 913 3 0.417000 122.981026 38.032222 11.007596
7033 913 3 0.417000 123.198598 38.572703 12.404893
7034 914 2 -0.834000 61.973053 38.638833 8.236348
7035 914 3 0.417000 62.702605 38.087040 8.518323
7036 914 3 0.417000 61.207657 38.267305 8.674946
7037 915 2 -0.834000 47.535563 21.340640 11.743011
7038 915 3 0.417000 48.075322 21.995853 11.300760
7039 915 3 0.417000 48.053476 20.536633 11.703370
7040 916 2 -0.834000 53.286289 12.895736 8.240563
7041 916 3 0.417000 53.565365 13.504253 8.924708
7042 916 3 0.417000 53.098290 13.453287 7.485564
7043 917 2 -0.834000 64.920877 32.933329 11.675727
7044 917 3 0.417000 64.187121 33.407794 12.066519
7045 917 3 0.417000 65.645039 33.559169 11.687762
7046 918 2 -0.834000 24.566435 21.421784 8.162677
7047 918 3 0.417000 23.903010 20.732415 8.133190
7048 918 3 0.417000 24.459374 21.821116 9.025986
7049 919 2 -0.834000 96.679358 38.538963 11.805920
7050 919 3 0.417000 97.111984 39.227751 11.301305
7051 919 3 0.417000 97.217568 37.760878 11.660510
7052 920 2 -0.834000 116.917078 15.618557 8.156709
7053 920 3 0.417000 117.745230 15.531795 7.684619
7054 920 3 0.417000 116.580501 16.475667 7.895350
7055 921 2 -0.834000 90.881672 4.308515 11.746573
7056 921 3 0.417000 91.210856 3.779127 11.020200
7057 921 3 0.417000 91.338461 5.145227 11.660030
7058 922 2 -0.834000 82.278620 30.038466 11.779613
7059 922 3 0.417000 83.161615 30.037072 12.149139
7060 922 3 0.417000 82.333565 30.629776 11.028903
7061 923 2 -0.834000 47.580241 7.195170 8.293710
7062 923 3 0.417000 47.533910 6.711225 7.469160
7063 923 3 0.417000 47.611278 6.517052 8.968561
7064 924 2 -0.834000 67.717142 24.224922 11.776683
7065 924 3 0.417000 66.892002 24.332876 11.303690
7066 924 3 0.417000 67.976567 23.320018 11.603246
7067 925 2 -0.834000 85.150255 38.648861 11.700208
7068 925 3 0.417000 84.910892 39.569941 11.597498
7069 925 3 0.417000 84.596796 38.185530 11.071528
7070 926 2 -0.834000 15.905708 35.698924 11.713938
7071 926 3 0.417000 15.979954 36.632679 11.910967
7072 926 3 0.417000 15.356359 35.661807 10.930951
7073 927 2 -0.834000 102.375279 12.916197 8.240579
7074 927 3 0.417000 102.550947 12.830900 9.177647
7075 927 3 0.417000 103.220865 13.150851 7.858277
7076 928 2 -0.834000 18.800467 24.188914 11.782686
7077 928 3 0.417000 19.647149 23.833582 12.053055
7078 928 3 0.417000 18.844813 24.213765 10.826836
7079 929 2 -0.834000 125.562164 18.671115 11.797642
7080 929 3 0.417000 125.459239 18.269691 10.934800
7081 929 3 0.417000 126.455419 19.015102 11.797287
7082 930 2 -0.834000 93.839749 4.298983 11.775435
7083 930 3 0.417000 94.460039 4.497802 11.074048
7084 930 3 0.417000 93.734052 3.348298 11.739990
7085 931 2 -0.834000 105.371276 4.337965 8.340605
7086 931 3 0.417000 105.867258 5.153263 8.414925
7087 931 3 0.417000 104.921353 4.406676 7.498536
7088 932 2 -0.834000 96.655986 10.097814 11.657877
7089 932 3 0.417000 96.642699 10.290291 12.595431
7090 932 3 0.417000 97.462522 10.504289 11.340844
7091 933 2 -0.834000 96.647146 38.542693 8.160719
7092 933 3 0.417000 96.347209 38.809217 7.291677
7093 933 3 0.417000 95.942364 38.810540 8.750441
7094 934 2 -0.834000 131.192627 35.737858 11.656338
7095 934 3 0.417000 131.891428 35.112745 11.463613
7096 934 3 0.417000 131.255335 35.884451 12.600165
7097 935 2 -0.834000 41.825439 24.248119 8.273074
7098 935 3 0.417000 42.146446 25.004084 7.781441
7099 935 3 0.417000 42.604123 23.891665 8.700653
7100 936 2 -0.834000 82.161481 12.796487 11.699193
7101 936 3 0.417000 81.813059 13.626681 11.374212
7102 936 3 0.417000 82.555056 13.015580 12.543781
7103 937 2 -0.834000 24.600523 9.935940 11.743909
7104 937 3 0.417000 23.951100 9.541076 12.325771
7105 937 3 0.417000 24.586043 10.867167 11.964904
7106 938 2 -0.834000 67.720178 10.037745 11.836231
7107 938 3 0.417000 68.237631 10.775113 12.159904
7108 938 3 0.417000 67.745208 10.126846 10.883516
7109 939 2 -0.834000 1.375807 7.109600 11.699606
7110 939 3 0.417000 1.008103 7.570821 12.453463
7111 939 3 0.417000 0.721477 7.217962 11.009430
7112 940 2 -0.834000 56.258078 38.484708 11.808820
7113 940 3 0.417000 55.409977 38.040931 11.813054
7114 940 3 0.417000 56.462996 38.619557 12.734053
7115 941 2 -0.834000 119.772845 24.313063 11.757378
7116 941 3 0.417000 120.715395 24.155370 11.811811
7117 941 3 0.417000 119.654645 25.189615 12.123324
7118 942 2 -0.834000 7.148497 21.403361 11.769191
7119 942 3 0.417000 7.240116 21.890846 12.587846
7120 942 3 0.417000 8.044892 21.300140 11.449736
7121 943 2 -0.834000 59.154395 21.388185 8.259180
7122 943 3 0.417000 58.848742 20.517029 8.511958
7123 943 3 0.417000 59.132660 21.895029 9.070887
7124 944 2 -0.834000 139.901970 30.099521 8.297996
7125 944 3 0.417000 138.978970 30.252198 8.500462
7126 944 3 0.417000 140.302454 30.968164 8.334097
7127 945 2 -0.834000 61.980182 35.648944 11.695365
7128 945 3 0.417000 62.527539 34.912101 11.966835
7129 945 3 0.417000 62.476874 36.425103 11.954413
7130 946 2 -0.834000 27.468592 32.944097 11.692058
7131 946 3 0.417000 27.884583 33.371090 12.440965
7132 946 3 0.417000 27.577395 33.564404 10.971216
7133 947 2 -0.834000 90.861895 18.498520 11.775938
7134 947 3 0.417000 90.027194 18.077315 11.570774
7135 947 3 0.417000 90.777958 19.383333 11.420562
7136 948 2 -0.834000 125.424049 1.413204 8.219093
7137 948 3 0.417000 125.419815 2.152590 8.826977
7138 948 3 0.417000 125.996878 0.766695 8.631555
7139 949 2 -0.834000 56.301408 15.641124 8.252439
7140 949 3 0.417000 56.375714 16.538058 8.578354
7141 949 3 0.417000 56.810301 15.117847 8.871665
7142 950 2 -0.834000 38.979824 7.119818 11.718207
7143 950 3 0.417000 38.485198 7.718675 11.158791
7144 950 3 0.417000 39.481047 6.579582 11.107345
7145 951 2 -0.834000 41.730939 18.492859 8.183301
7146 951 3 0.417000 40.863876 18.226385 7.877646
7147 951 3 0.417000 42.328775 18.197203 7.496707
7148 952 2 -0.834000 99.451390 7.159478 8.270554
7149 952 3 0.417000 99.360969 7.210954 7.319026
7150 952 3 0.417000 99.697650 6.250034 8.439372
7151 953 2 -0.834000 128.353659 12.837611 11.843065
7152 953 3 0.417000 127.708649 13.479772 12.139416
7153 953 3 0.417000 129.197609 13.208934 12.100161
7154 954 2 -0.834000 113.983373 32.933261 11.761968
7155 954 3 0.417000 113.750182 32.007185 11.827073
7156 954 3 0.417000 113.143150 33.391072 11.736157
7157 955 2 -0.834000 36.040805 35.774482 8.271820
7158 955 3 0.417000 35.557266 35.134456 8.794111
7159 955 3 0.417000 36.961026 35.547850 8.406221
7160 956 2 -0.834000 35.962859 38.666672 8.241095
7161 956 3 0.417000 36.343796 38.503335 9.103904
7162 956 3 0.417000 35.099974 39.037437 8.426013
7163 957 2 -0.834000 59.156129 27.136243 8.257076
7164 957 3 0.417000 59.083287 27.891537 8.840562
7165 957 3 0.417000 59.768515 27.416602 7.576918
7166 958 2 -0.834000 64.878956 35.683393 11.811545
7167 958 3 0.417000 64.976910 35.790233 12.757707
7168 958 3 0.417000 64.237988 36.348324 11.560033
7169 959 2 -0.834000 53.411042 1.484433 11.705006
7170 959 3 0.417000 53.844133 0.682373 11.997178
7171 959 3 0.417000 52.802401 1.194641 11.025441
7172 960 2 -0.834000 7.259056 1.480299 8.348079
7173 960 3 0.417000 6.407462 1.093258 8.551104
7174 960 3 0.417000 7.895514 0.836081 8.658137
7175 961 2 -0.834000 85.151104 1.410757 8.251752
7176 961 3 0.417000 84.573300 2.155332 8.084471
7177 961 3 0.417000 84.579058 0.743504 8.630920
7178 962 2 -0.834000 70.637904 1.333836 11.684215
7179 962 3 0.417000 71.186466 1.638067 12.407233
7180 962 3 0.417000 71.013771 0.489000 11.436811
7181 963 2 -0.834000 38.967722 21.435001 11.717527
7182 963 3 0.417000 39.646570 20.760259 11.728524
7183 963 3 0.417000 38.943658 21.736439 10.809349
7184 964 2 -0.834000 93.771830 18.564521 11.725371
7185 964 3 0.417000 93.973630 19.379891 12.184371
7186 964 3 0.417000 93.801342 18.797812 10.797505
7187 965 2 -0.834000 128.363919 27.091863 8.242916
7188 965 3 0.417000 128.270420 26.477882 7.514550
7189 965 3 0.417000 127.465344 27.290157 8.506496
7190 966 2 -0.834000 93.757033 21.355867 11.706462
7191 966 3 0.417000 92.872616 21.626358 11.953189
7192 966 3 0.417000 93.636769 20.841507 10.908213
7193 967 2 -0.834000 21.710875 32.875441 11.718866
7194 967 3 0.417000 22.526370 33.074779 12.178719
7195 967 3 0.417000 21.853625 32.006923 11.342660
7196 968 2 -0.834000 85.001453 29.955030 11.672038
7197 968 3 0.417000 84.115036 30.172821 11.383828
7198 968 3 0.417000 85.410149 29.550823 10.906652
7199 969 2 -0.834000 21.723807 27.145062 8.159437
7200 969 3 0.417000 21.371684 28.034280 8.198581
7201 969 3 0.417000 22.366381 27.172389 7.450505
7202 970 2 -0.834000 41.841540 10.012980 11.730549
7203 970 3 0.417000 41.834198 10.068272 10.774975
7204 970 3 0.417000 42.543905 9.393914 11.929727
7205 971 2 -0.834000 73.578331 32.929361 8.185081
7206 971 3 0.417000 72.986140 33.679870 8.232820
7207 971 3 0.417000 74.334245 33.250988 7.693775
7208 972 2 -0.834000 90.791127 1.454436 11.760707
7209 972 3 0.417000 90.909095 2.026937 11.002711
7210 972 3 0.417000 90.888443 0.569053 11.410195
7211 973 2 -0.834000 111.115061 27.188273 8.324459
7212 973 3 0.417000 110.892208 26.357216 8.743879
7213 973 3 0.417000 111.909680 26.999650 7.825226
7214 974 2 -0.834000 114.022992 4.325659 8.224144
7215 974 3 0.417000 113.979481 4.862580 9.015380
7216 974 3 0.417000 114.932267 4.398851 7.934154
7217 975 2 -0.834000 15.826404 15.636489 8.177865
7218 975 3 0.417000 15.086194 16.186478 7.921286
7219 975 3 0.417000 16.358121 15.564634 7.385182
7220 976 2 -0.834000 148.635933 9.902183 8.302488
7221 976 3 0.417000 149.497368 10.008114 8.706148
7222 976 3 0.417000 148.786840 10.058648 7.370299
7223 977 2 -0.834000 134.151036 9.949955 8.162440
7224 977 3 0.417000 133.889715 10.772393 7.748266
7225 977 3 0.417000 134.820954 10.203299 8.797467
7226 978 2 -0.834000 122.588572 18.626105 11.709238
7227 978 3 0.417000 122.163303 17.768567 11.711802
7228 978 3 0.417000 123.106485 18.639548 12.514109
7229 979 2 -0.834000 59.042453 7.124274 11.806315
7230 979 3 0.417000 58.696738 7.358528 10.945016
7231 979 3 0.417000 59.394759 7.943391 12.154394
7232 980 2 -0.834000 85.104794 38.652912 8.233181
7233 980 3 0.417000 85.124837 38.666100 7.276282
7234 980 3 0.417000 84.536167 37.914412 8.451156
7235 981 2 -0.834000 41.819787 1.527066 8.290949
7236 981 3 0.417000 42.443225 2.245523 8.397611
7237 981 3 0.417000 42.126048 1.056684 7.515593
7238 982 2 -0.834000 21.589006 18.661298 8.201910
7239 982 3 0.417000 22.061547 19.223498 8.815804
7240 982 3 0.417000 21.897477 17.777088 8.400025
7241 983 2 -0.834000 113.844315 10.012001 11.708143
7242 983 3 0.417000 113.503288 10.180523 12.586512
7243 983 3 0.417000 113.257731 10.495183 11.126175
7244 984 2 -0.834000 125.476470 21.380060 8.280503
7245 984 3 0.417000 125.372049 21.183254 7.349591
7246 984 3 0.417000 126.355994 21.751304 8.350124
7247 985 2 -0.834000 116.826554 32.825986 11.765158
7248 985 3 0.417000 116.673495 31.881336 11.786181
7249 985 3 0.417000 117.769829 32.919292 11.898418
7250 986 2 -0.834000 82.239370 15.779297 11.761944
7251 986 3 0.417000 83.120855 16.095870 11.959422
7252 986 3 0.417000 82.367558 14.874579 11.476837
7253 987 2 -0.834000 15.779619 15.729485 11.660541
7254 987 3 0.417000 15.929975 15.883522 10.727858
7255 987 3 0.417000 16.634516 15.466116 12.001156
7256 988 2 -0.834000 105.280047 12.905218 11.688863
7257 988 3 0.417000 104.650283 13.593203 11.904053
7258 988 3 0.417000 104.765584 12.098061 11.696325
7259 989 2 -0.834000 70.640201 10.071722 11.695173
7260 989 3 0.417000 69.905451 10.675158 11.584537
7261 989 3 0.417000 70.230862 9.226908 11.882153
7262 990 2 -0.834000 119.640555 18.611997 8.253399
7263 990 3 0.417000 120.494548 18.601633 7.821172
7264 990 3 0.417000 119.707127 19.315060 8.899543
7265 991 2 -0.834000 76.415195 18.567209 8.223841
7266 991 3 0.417000 76.768127 18.475538 7.338816
7267 991 3 0.417000 77.065714 19.093867 8.688263
7268 992 2 -0.834000 4.273011 35.725785 11.653437
7269 992 3 0.417000 5.229064 35.744451 11.696402
7270 992 3 0.417000 3.988089 36.152256 12.461628
7271 993 2 -0.834000 134.144626 29.950543 11.680709
7272 993 3 0.417000 134.020362 30.243585 12.583437
7273 993 3 0.417000 134.976004 29.476360 11.694611
7274 994 2 -0.834000 13.005573 24.260103 11.700540
7275 994 3 0.417000 13.890417 24.588651 11.859723
7276 994 3 0.417000 12.631904 24.873733 11.068035
7277 995 2 -0.834000 142.846230 32.836197 11.670691
7278 995 3 0.417000 142.621064 33.502102 11.020996
7279 995 3 0.417000 143.722294 33.079454 11.969973
7280 996 2 -0.834000 90.793619 38.527522 8.241377
7281 996 3 0.417000 89.871008 38.463360 8.488167
7282 996 3 0.417000 90.983578 37.697121 7.804822
7283 997 2 -0.834000 7.252207 21.467951 8.210530
7284 997 3 0.417000 7.427027 21.328517 9.141243
7285 997 3 0.417000 8.094962 21.738215 7.845903
7286 998 2 -0.834000 128.317743 7.225066 8.234883
7287 998 3 0.417000 128.860104 6.513570 7.894516
7288 998 3 0.417000 128.735336 7.471435 9.060201
7289 999 2 -0.834000 64.869732 15.749440 8.184787
7290 999 3 0.417000 64.269465 16.478320 8.027797
7291 999 3 0.417000 65.138382 15.467212 7.310483
7292 1000 2 -0.834000 102.312677 38.491821 8.152347
7293 1000 3 0.417000 101.577788 38.397572 7.546303
7294 1000 3 0.417000 102.101022 37.905991 8.879146
7295 1001 2 -0.834000 15.891331 12.952600 8.228866
7296 1001 3 0.417000 16.002036 13.534014 7.476581
7297 1001 3 0.417000 14.989449 13.098637 8.514371
7298 1002 2 -0.834000 1.497428 30.011274 11.747079
7299 1002 3 0.417000 1.898366 30.510714 11.035714
7300 1002 3 0.417000 0.590635 30.316674 11.773335
7301 1003 2 -0.834000 18.811227 7.054030 11.695578
7302 1003 3 0.417000 19.324910 6.590198 12.356805
7303 1003 3 0.417000 19.418692 7.183851 10.967317
7304 1004 2 -0.834000 27.314548 27.046322 11.737996
7305 1004 3 0.417000 27.302186 26.846111 12.673942
7306 1004 3 0.417000 28.221755 26.895849 11.472354
7307 1005 2 -0.834000 116.839146 4.360694 11.684625
7308 1005 3 0.417000 117.166699 4.306059 10.786875
7309 1005 3 0.417000 116.890157 3.463298 12.013730
7310 1006 2 -0.834000 50.492044 35.718599 11.789702
7311 1006 3 0.417000 50.981914 35.216449 12.440936
7312 1006 3 0.417000 50.530774 35.184715 10.996166
7313 1007 2 -0.834000 93.825252 10.031404 8.230892
7314 1007 3 0.417000 94.129105 9.490445 7.502010
7315 1007 3 0.417000 94.182081 9.605952 9.010568
7316 1008 2 -0.834000 119.730503 21.491294 11.666768
7317 1008 3 0.417000 120.283744 22.078267 12.182149
7318 1008 3 0.417000 118.850587 21.859657 11.746068
7319 1009 2 -0.834000 24.545075 4.242769 11.757826
7320 1009 3 0.417000 23.645764 3.992261 11.969291
7321 1009 3 0.417000 24.984542 4.298388 12.606359
7322 1010 2 -0.834000 10.103068 18.600504 11.726009
7323 1010 3 0.417000 9.362030 19.044130 11.313346
7324 1010 3 0.417000 9.705753 18.035197 12.388429
7325 1011 2 -0.834000 47.535205 1.351270 8.222306
7326 1011 3 0.417000 48.338355 0.959009 8.564816
7327 1011 3 0.417000 47.331846 2.056759 8.836441
7328 1012 2 -0.834000 7.308067 18.660544 11.840277
7329 1012 3 0.417000 6.785490 17.891721 11.612118
7330 1012 3 0.417000 7.248035 18.717131 12.793916
7331 1013 2 -0.834000 128.389065 21.401344 11.787953
7332 1013 3 0.417000 127.723006 20.756977 11.548392
7333 1013 3 0.417000 129.188551 20.888074 11.904605
7334 1014 2 -0.834000 145.667927 24.199817 11.663963
7335 1014 3 0.417000 145.862966 24.787956 10.934386
7336 1014 3 0.417000 145.757644 23.321315 11.294616
7337 1015 2 -0.834000 38.882883 29.901523 11.748903
7338 1015 3 0.417000 38.120345 29.820477 11.176016
7339 1015 3 0.417000 39.031751 30.844524 11.818326
7340 1016 2 -0.834000 116.813457 15.796896 11.723429
7341 1016 3 0.417000 116.099293 15.498734 12.286724
7342 1016 3 0.417000 117.335663 16.372385 12.282307
7343 1017 2 -0.834000 53.307379 7.193814 8.195405
7344 1017 3 0.417000 53.369103 6.466187 8.814260
7345 1017 3 0.417000 53.499014 6.801352 7.343654
7346 1018 2 -0.834000 41.813412 21.470917 11.792250
7347 1018 3 0.417000 41.003539 21.501350 11.282927
7348 1018 3 0.417000 41.592664 20.948055 12.563041
7349 1019 2 -0.834000 119.630661 15.620496 11.674955
7350 1019 3 0.417000 120.208371 15.831679 12.408361
7351 1019 3 0.417000 118.894834 15.156937 12.074834
7352 1020 2 -0.834000 110.999599 10.070290 8.251810
7353 1020 3 0.417000 111.116440 9.875868 9.181745
7354 1020 3 0.417000 110.163468 10.534070 8.206804
7355 1021 2 -0.834000 131.315430 29.995703 8.263158
7356 1021 3 0.417000 130.648854 29.539021 7.749982
7357 1021 3 0.417000 130.820894 30.606472 8.809626
7358 1022 2 -0.834000 148.505655 29.993888 8.224757
7359 1022 3 0.417000 148.283687 29.505585 7.431963
7360 1022 3 0.417000 149.006321 30.746796 7.910599
7361 1023 2 -0.834000 4.413071 32.936421 11.727330
7362 1023 3 0.417000 5.046587 33.379994 11.163297
7363 1023 3 0.417000 4.907970 32.714685 12.516088
7364 1024 2 -0.834000 134.195213 32.803331 11.749551
7365 1024 3 0.417000 133.636902 33.574820 11.846123
7366 1024 3 0.417000 135.029741 33.060432 12.141591
7367 1025 2 -0.834000 50.566554 4.370610 11.705363
7368 1025 3 0.417000 49.706173 4.505322 12.102642
7369 1025 3 0.417000 50.684785 5.124524 11.127551
7370 1026 2 -0.834000 15.896620 9.942748 11.817482
7371 1026 3 0.417000 15.234091 10.627145 11.911759
7372 1026 3 0.417000 16.725812 10.417589 11.760926
7373 1027 2 -0.834000 76.468899 32.921551 8.331154
7374 1027 3 0.417000 76.094604 33.737958 8.000073
7375 1027 3 0.417000 75.794850 32.566044 8.910381
7376 1028 2 -0.834000 24.522540 4.193729 8.322916
7377 1028 3 0.417000 25.457303 4.292998 8.142373
7378 1028 3 0.417000 24.371998 4.722417 9.106534
7379 1029 2 -0.834000 142.883945 15.793264 8.222313
7380 1029 3 0.417000 143.717023 15.537528 8.618307
7381 1029 3 0.417000 142.226522 15.570472 8.881396
7382 1030 2 -0.834000 111.043089 35.775080 8.273385
7383 1030 3 0.417000 111.898202 35.552061 7.905586
7384 1030 3 0.417000 110.493384 35.015587 8.080445
7385 1031 2 -0.834000 18.769161 35.722099 11.689518
7386 1031 3 0.417000 19.068235 36.105479 10.865014
7387 1031 3 0.417000 17.865670 35.457082 11.517175
7388 1032 2 -0.834000 113.891192 32.906560 8.305184
7389 1032 3 0.417000 114.264400 33.710904 7.944660
7390 1032 3 0.417000 114.272105 32.206565 7.774954
7391 1033 2 -0.834000 90.833058 12.838463 11.803392
7392 1033 3 0.417000 91.634374 12.615858 11.329503
7393 1033 3 0.417000 90.229202 12.123321 11.602990
7394 1034 2 -0.834000 56.339265 32.874078 11.656639
7395 1034 3 0.417000 56.039296 33.710735 11.301316
7396 1034 3 0.417000 56.813692 33.108372 12.454297
7397 1035 2 -0.834000 128.408074 4.216575 11.766635
7398 1035 3 0.417000 127.912657 4.285324 12.582765
7399 1035 3 0.417000 128.785634 5.087151 11.641021
7400 1036 2 -0.834000 134.070556 4.210668 8.213090
7401 1036 3 0.417000 133.366093 4.609443 8.723914
7402 1036 3 0.417000 133.831725 3.285484 8.156275
7403 1037 2 -0.834000 122.691971 21.351583 11.811017
7404 1037 3 0.417000 121.824631 21.312108 12.214000
7405 1037 3 0.417000 122.773882 20.524466 11.336253
7406 1038 2 -0.834000 73.656277 1.511020 11.844074
7407 1038 3 0.417000 73.722075 2.462328 11.927232
7408 1038 3 0.417000 73.783153 1.342385 10.910427
7409 1039 2 -0.834000 12.900210 27.233181 8.323045
7410 1039 3 0.417000 12.216194 26.750752 8.787390
7411 1039 3 0.417000 12.826048 28.129597 8.650415
7412 1040 2 -0.834000 50.404748 30.059856 8.254518
7413 1040 3 0.417000 49.746953 29.533682 7.799900
7414 1040 3 0.417000 50.988604 30.366101 7.560574
7415 1041 2 -0.834000 10.055067 35.779475 11.789239
7416 1041 3 0.417000 10.813289 36.073645 11.284466
7417 1041 3 0.417000 9.425088 35.489937 11.129295
7418 1042 2 -0.834000 131.290686 1.501418 8.339346
7419 1042 3 0.417000 131.480285 0.563277 8.352560
7420 1042 3 0.417000 131.532296 1.782680 7.456878
7421 1043 2 -0.834000 108.216152 9.944227 8.270313
7422 1043 3 0.417000 108.863602 10.335705 8.856644
7423 1043 3 0.417000 108.004268 10.639954 7.647978
7424 1044 2 -0.834000 36.126841 35.659706 11.727388
7425 1044 3 0.417000 36.509413 34.804772 11.530006
7426 1044 3 0.417000 36.129895 36.123131 10.889856
7427 1045 2 -0.834000 61.919709 4.256923 8.152166
7428 1045 3 0.417000 61.800048 3.312075 8.247949
7429 1045 3 0.417000 62.039135 4.389589 7.211757
7430 1046 2 -0.834000 142.888123 9.985024 11.706043
7431 1046 3 0.417000 142.558102 10.249457 12.564759
7432 1046 3 0.417000 143.567449 9.338756 11.898622
7433 1047 2 -0.834000 67.780040 7.166522 8.235396
7434 1047 3 0.417000 68.383474 7.905325 8.156221
7435 1047 3 0.417000 68.189095 6.590718 8.881427
7436 1048 2 -0.834000 145.753509 24.354495 8.344367
7437 1048 3 0.417000 145.480874 24.995740 7.688085
7438 1048 3 0.417000 146.587694 24.688511 8.674216
7439 1049 2 -0.834000 142.746551 7.096881 11.796665
7440 1049 3 0.417000 143.483203 6.668055 12.232192
7441 1049 3 0.417000 142.062112 7.135308 12.464721
7442 1050 2 -0.834000 145.661543 35.681638 11.790972
7443 1050 3 0.417000 145.541163 36.439969 12.362526
7444 1050 3 0.417000 145.991854 36.049059 10.971138
7445 1051 2 -0.834000 1.399428 30.034226 8.266974
7446 1051 3 0.417000 1.854298 29.501017 8.918904
7447 1051 3 0.417000 1.083940 29.403997 7.619277
7448 1052 2 -0.834000 67.774720 29.968769 11.696436
7449 1052 3 0.417000 67.580433 29.091171 12.025536
7450 1052 3 0.417000 67.289376 30.555485 12.276468
7451 1053 2 -0.834000 113.847494 4.194114 11.657398
7452 1053 3 0.417000 114.412302 3.557577 12.095627
7453 1053 3 0.417000 112.991618 4.079998 12.070539
7454 1054 2 -0.834000 145.606270 29.931388 8.311225
7455 1054 3 0.417000 145.489747 29.865421 9.259014
7456 1054 3 0.417000 145.657603 30.871862 8.140624
7457 1055 2 -0.834000 50.405108 21.347828 11.732539
7458 1055 3 0.417000 50.276888 20.983319 12.608281
7459 1055 3 0.417000 49.812617 22.098729 11.696027
7460 1056 2 -0.834000 41.862196 18.595978 11.810494
7461 1056 3 0.417000 41.077625 18.987925 11.427014
7462 1056 3 0.417000 42.496252 19.312257 11.844386
7463 1057 2 -0.834000 139.975650 12.821084 11.800133
7464 1057 3 0.417000 140.547421 12.393770 12.437874
7465 1057 3 0.417000 140.434846 13.628606 11.569310
7466 1058 2 -0.834000 122.689520 32.898828 8.316878
7467 1058 3 0.417000 122.096477 33.640418 8.437608
7468 1058 3 0.417000 122.809219 32.839090 7.369072
7469 1059 2 -0.834000 131.321067 27.050010 11.807223
7470 1059 3 0.417000 131.289909 26.938765 12.757426
7471 1059 3 0.417000 132.255016 27.073841 11.598884
7472 1060 2 -0.834000 102.352513 35.647420 8.173366
7473 1060 3 0.417000 102.352807 36.529838 8.544271
7474 1060 3 0.417000 103.018497 35.176370 8.674175
7475 1061 2 -0.834000 125.480522 35.731143 8.346384
7476 1061 3 0.417000 125.058826 36.590403 8.355087
7477 1061 3 0.417000 125.661937 35.543506 9.267314
7478 1062 2 -0.834000 13.067832 29.954349 11.791349
7479 1062 3 0.417000 13.736823 30.575290 12.079648
7480 1062 3 0.417000 12.470595 30.476529 11.255748
7481 1063 2 -0.834000 96.660808 18.474519 8.333736
7482 1063 3 0.417000 97.576353 18.750620 8.291583
7483 1063 3 0.417000 96.210030 19.202592 8.761452
7484 1064 2 -0.834000 64.864630 18.525514 11.847153
7485 1064 3 0.417000 65.119919 18.397637 10.933531
7486 1064 3 0.417000 63.917840 18.662542 11.814851
7487 1065 2 -0.834000 122.687635 12.903829 8.211577
7488 1065 3 0.417000 123.287673 12.537972 8.861450
7489 1065 3 0.417000 121.864833 12.436056 8.354464
7490 1066 2 -0.834000 1.381252 1.328601 8.257488
7491 1066 3 0.417000 1.631104 2.241112 8.402844
7492 1066 3 0.417000 0.477504 1.374029 7.945385
7493 1067 2 -0.834000 62.094272 1.416835 8.342116
7494 1067 3 0.417000 62.047899 2.369998 8.267537
7495 1067 3 0.417000 62.904709 1.179980 7.891202
7496 1068 2 -0.834000 73.461451 24.294205 11.698421
7497 1068 3 0.417000 73.073866 24.612092 12.513870
7498 1068 3 0.417000 73.643111 25.087137 11.193951
7499 1069 2 -0.834000 15.823150 1.514565 8.286783
7500 1069 3 0.417000 15.147218 1.297297 8.928766
7501 1069 3 0.417000 15.420858 1.321322 7.439995
7502 1070 2 -0.834000 59.184750 7.075689 8.159992
7503 1070 3 0.417000 59.968258 7.600477 7.995843
7504 1070 3 0.417000 58.660368 7.172208 7.365045
7505 1071 2 -0.834000 90.810442 7.140929 8.198405
7506 1071 3 0.417000 91.231993 6.610310 8.874401
7507 1071 3 0.417000 91.462090 7.805004 7.973481
7508 1072 2 -0.834000 24.538381 1.428160 11.847054
7509 1072 3 0.417000 24.905548 2.310723 11.797031
7510 1072 3 0.417000 25.101465 0.968941 12.470180
7511 1073 2 -0.834000 21.694110 27.134519 11.717231
7512 1073 3 0.417000 22.484036 27.345472 11.219488
7513 1073 3 0.417000 22.001889 27.012039 12.615286
7514 1074 2 -0.834000 90.806603 38.633805 11.761772
7515 1074 3 0.417000 91.731309 38.874980 11.707125
7516 1074 3 0.417000 90.752382 37.788287 11.316361
7517 1075 2 -0.834000 125.548673 12.773240 11.796438
7518 1075 3 0.417000 125.555394 13.718773 11.945281
7519 1075 3 0.417000 124.714627 12.478637 12.162236
7520 1076 2 -0.834000 27.329275 15.662703 11.750801
7521 1076 3 0.417000 27.883077 14.910149 11.542958
7522 1076 3 0.417000 27.389381 16.225398 10.978795
7523 1077 2 -0.834000 122.505499 27.165916 8.269510
7524 1077 3 0.417000 122.174054 26.620475 7.556159
7525 1077 3 0.417000 123.324726 26.746093 8.531899
7526 1078 2 -0.834000 61.953419 29.937469 11.811428
7527 1078 3 0.417000 61.816363 29.143170 12.327699
7528 1078 3 0.417000 62.546930 30.469053 12.341894
7529 1079 2 -0.834000 24.605818 21.504123 11.777983
7530 1079 3 0.417000 25.266597 20.924725 12.157326
7531 1079 3 0.417000 23.991116 21.667837 12.493225
7532 1080 2 -0.834000 137.050850 38.650675 8.275430
7533 1080 3 0.417000 136.393773 39.079302 8.823846
7534 1080 3 0.417000 136.578086 38.409039 7.478977
7535 1081 2 -0.834000 105.300904 32.784539 8.178248
7536 1081 3 0.417000 104.777159 32.002196 8.351056
7537 1081 3 0.417000 105.758906 32.953422 9.001621
7538 1082 2 -0.834000 7.127655 32.804393 11.781727
7539 1082 3 0.417000 7.812571 32.819599 11.113228
7540 1082 3 0.417000 6.865627 33.720012 11.877720
7541 1083 2 -0.834000 56.285932 24.251018 11.737287
7542 1083 3 0.417000 56.065873 23.434495 12.185724
7543 1083 3 0.417000 55.843409 24.930765 12.245568
7544 1084 2 -0.834000 85.005852 12.785091 8.259894
7545 1084 3 0.417000 84.057975 12.875381 8.161872
7546 1084 3 0.417000 85.233609 13.394329 8.962167
7547 1085 2 -0.834000 108.088833 7.186587 8.240700
7548 1085 3 0.417000 108.262944 6.412173 7.705725
7549 1085 3 0.417000 107.792510 7.848311 7.615763
7550 1086 2 -0.834000 56.174434 10.024664 8.284941
7551 1086 3 0.417000 56.490273 9.121546 8.314182
7552 1086 3 0.417000 55.616733 10.109021 9.058301
7553 1087 2 -0.834000 99.476121 1.439909 11.788735
7554 1087 3 0.417000 98.564363 1.522217 12.068295
7555 1087 3 0.417000 99.975874 1.413538 12.604691
7556 1088 2 -0.834000 139.827334 10.084522 8.231651
7557 1088 3 0.417000 139.807001 10.436251 7.341649
7558 1088 3 0.417000 138.977003 9.658818 8.340946
7559 1089 2 -0.834000 125.499501 24.255331 8.186463
7560 1089 3 0.417000 125.125193 23.992200 9.027229
7561 1089 3 0.417000 124.823173 24.798857 7.782246
7562 1090 2 -0.834000 70.624564 35.768903 8.303156
7563 1090 3 0.417000 70.143902 35.714513 9.129133
7564 1090 3 0.417000 70.939112 34.878029 8.149424
7565 1091 2 -0.834000 7.122464 15.685559 11.707654
7566 1091 3 0.417000 7.192149 16.233839 10.926139
7567 1091 3 0.417000 7.379819 16.260823 12.428121
7568 1092 2 -0.834000 128.321551 32.845944 8.239144
7569 1092 3 0.417000 129.188831 32.744870 8.631369
7570 1092 3 0.417000 128.422673 32.518345 7.345452
7571 1093 2 -0.834000 99.425216 35.750709 8.174251
7572 1093 3 0.417000 99.663342 34.921151 8.588211
7573 1093 3 0.417000 100.243234 36.246788 8.142892
7574 1094 2 -0.834000 33.246426 7.054499 11.836187
7575 1094 3 0.417000 32.824352 7.855797 11.526335
7576 1094 3 0.417000 32.550408 6.397462 11.826517
7577 1095 2 -0.834000 102.319749 35.641845 11.809779
7578 1095 3 0.417000 102.358059 34.882184 11.228677
7579 1095 3 0.417000 103.070873 36.177431 11.554449
7580 1096 2 -0.834000 145.630128 21.475020 8.343594
7581 1096 3 0.417000 146.282407 20.779488 8.427253
7582 1096 3 0.417000 144.982067 21.124066 7.732792
7583 1097 2 -0.834000 7.288277 24.227637 11.683601
7584 1097 3 0.417000 7.142606 23.318173 11.423048
7585 1097 3 0.417000 6.577843 24.418559 12.296025
7586 1098 2 -0.834000 36.037666 15.693735 8.192958
7587 1098 3 0.417000 35.674524 16.265824 7.516885
7588 1098 3 0.417000 36.455997 16.290780 8.813254
7589 1099 2 -0.834000 70.585186 4.358843 11.796032
7590 1099 3 0.417000 70.219121 4.973747 12.431736
7591 1099 3 0.417000 71.114879 3.758369 12.320521
7592 1100 2 -0.834000 96.580159 12.844487 8.150400
7593 1100 3 0.417000 96.540532 11.919394 8.393022
7594 1100 3 0.417000 96.878839 12.841502 7.240997
7595 1101 2 -0.834000 108.227065 1.356892 8.249567
7596 1101 3 0.417000 107.814509 2.215574 8.156323
7597 1101 3 0.417000 107.601508 0.844434 8.761718
7598 1102 2 -0.834000 64.999962 4.274709 11.738633
7599 1102 3 0.417000 64.468941 3.979215 10.999085
7600 1102 3 0.417000 65.784276 4.648351 11.336793
7601 1103 2 -0.834000 1.387604 38.528952 11.757466
7602 1103 3 0.417000 1.268254 37.581648 11.825309
7603 1103 3 0.417000 1.165635 38.861691 12.627090
7604 1104 2 -0.834000 56.284190 32.758237 8.162684
7605 1104 3 0.417000 56.805415 33.027430 7.406317
7606 1104 3 0.417000 56.821657 32.099358 8.602274
7607 1105 2 -0.834000 142.871271 24.356975 8.283637
7608 1105 3 0.417000 143.026450 24.054043 7.388996
7609 1105 3 0.417000 142.029091 24.809902 8.240962
7610 1106 2 -0.834000 99.616110 32.828514 11.703514
7611 1106 3 0.417000 99.335232 33.738112 11.803365
7612 1106 3 0.417000 100.535604 32.830700 11.969517
7613 1107 2 -0.834000 56.260554 4.228447 11.814714
7614 1107 3 0.417000 55.775519 3.428071 11.613786
7615 1107 3 0.417000 56.811735 3.993999 12.561350
7616 1108 2 -0.834000 47.570295 24.302611 8.294765
7617 1108 3 0.417000 47.853051 24.321601 9.209052
7618 1108 3 0.417000 46.655221 24.582249 8.320705
7619 1109 2 -0.834000 142.688947 21.380386 11.801435
7620 1109 3 0.417000 143.237210 22.082513 11.451209
7621 1109 3 0.417000 143.152191 21.081873 12.584075
7622 1110 2 -0.834000 82.274354 35.726837 11.832039
7623 1110 3 0.417000 82.979868 35.521223 12.445394
7624 1110 3 0.417000 82.723316 36.026412 11.041521
7625 1111 2 -0.834000 122.666278 4.236054 11.675697
7626 1111 3 0.417000 122.731977 5.078579 11.226180
7627 1111 3 0.417000 121.761057 3.958729 11.534638
7628 1112 2 -0.834000 142.730672 21.409926 8.261748
7629 1112 3 0.417000 143.099286 20.635206 8.686206
7630 1112 3 0.417000 143.429664 22.062468 8.304540
7631 1113 2 -0.834000 137.100478 24.356091 8.172359
7632 1113 3 0.417000 137.211616 25.295600 8.026747
7633 1113 3 0.417000 137.987245 23.999072 8.123233
7634 1114 2 -0.834000 53.435838 7.235804 11.838452
7635 1114 3 0.417000 52.556336 7.527790 12.078144
7636 1114 3 0.417000 53.908672 8.042228 11.632681
7637 1115 2 -0.834000 36.021728 38.595646 11.702015
7638 1115 3 0.417000 35.322076 39.171005 11.392691
7639 1115 3 0.417000 35.634245 37.720426 11.693138
7640 1116 2 -0.834000 82.148794 24.362006 11.824210
7641 1116 3 0.417000 82.761975 24.849416 12.374367
7642 1116 3 0.417000 82.178871 23.468077 12.165117
7643 1117 2 -0.834000 24.431194 32.784407 8.183760
7644 1117 3 0.417000 24.556405 32.087082 7.540105
7645 1117 3 0.417000 24.277962 32.324481 9.009120
7646 1118 2 -0.834000 7.215011 15.636023 8.276655
7647 1118 3 0.417000 8.065600 15.283267 8.537984
7648 1118 3 0.417000 6.576771 15.065995 8.705548
7649 1119 2 -0.834000 4.284750 38.497914 11.716464
7650 1119 3 0.417000 3.963259 38.008618 12.473739
7651 1119 3 0.417000 3.648259 38.315680 11.025159
7652 1120 2 -0.834000 24.445237 15.745066 8.310474
7653 1120 3 0.417000 23.557345 15.534247 8.021625
7654 1120 3 0.417000 24.943689 15.846398 7.499604
7655 1121 2 -0.834000 93.695247 12.879435 11.651660
7656 1121 3 0.417000 93.805663 12.762956 10.708011
7657 1121 3 0.417000 93.466312 12.008380 11.975825
7658 1122 2 -0.834000 125.432276 29.954078 11.708873
7659 1122 3 0.417000 125.225900 29.788403 12.628760
7660 1122 3 0.417000 126.386068 29.888828 11.661382
7661 1123 2 -0.834000 62.022613 38.613329 11.823529
7662 1123 3 0.417000 62.950330 38.469669 12.010439
7663 1123 3 0.417000 61.664300 37.734694 11.697655
7664 1124 2 -0.834000 139.893806 1.402487 11.676889
7665 1124 3 0.417000 139.725452 2.337985 11.564052
7666 1124 3 0.417000 139.818007 1.257039 12.619932
7667 1125 2 -0.834000 64.854032 7.161227 8.336711
7668 1125 3 0.417000 64.628530 8.072941 8.151889
7669 1125 3 0.417000 64.854549 7.103079 9.292143
7670 1126 2 -0.834000 99.507870 10.093078 11.678842
7671 1126 3 0.417000 99.041634 9.315369 11.985478
7672 1126 3 0.417000 99.687352 9.916720 10.755307
7673 1127 2 -0.834000 30.193253 18.541345 11.807973
7674 1127 3 0.417000 29.723406 18.007946 12.449036
7675 1127 3 0.417000 29.743459 19.386149 11.822898
7676 1128 2 -0.834000 76.433128 27.152623 11.729103
7677 1128 3 0.417000 77.185911 27.310255 11.159276
7678 1128 3 0.417000 76.618813 27.661466 12.518300
7679 1129 2 -0.834000 70.646294 9.915498 8.197670
7680 1129 3 0.417000 71.187828 9.191166 8.511224
7681 1129 3 0.417000 69.808549 9.800480 8.646207
7682 1130 2 -0.834000 50.536502 10.041879 11.747889
7683 1130 3 0.417000 50.715923 9.283188 12.303253
7684 1130 3 0.417000 51.367164 10.217546 11.305878
7685 1131 2 -0.834000 56.330106 35.750784 8.171988
7686 1131 3 0.417000 56.320831 35.692662 7.216600
7687 1131 3 0.417000 57.199128 35.437724 8.423039
7688 1132 2 -0.834000 7.227206 12.835636 11.723918
7689 1132 3 0.417000 7.984622 12.254372 11.792352
7690 1132 3 0.417000 6.998829 12.823818 10.794436
7691 1133 2 -0.834000 99.440492 29.992445 11.721631
7692 1133 3 0.417000 98.962032 29.407216 11.134421
7693 1133 3 0.417000 98.968305 29.937391 12.552437
7694 1134 2 -0.834000 128.361619 12.933526 8.269757
7695 1134 3 0.417000 127.621601 12.742757 8.846136
7696 1134 3 0.417000 127.959870 13.171727 7.434239
7697 1135 2 -0.834000 27.452732 38.631185 8.156871
7698 1135 3 0.417000 28.074644 38.095731 7.664178
7699 1135 3 0.417000 27.933267 38.896896 8.940909
7700 1136 2 -0.834000 145.769061 21.521911 11.707080
7701 1136 3 0.417000 146.626484 21.947225 11.694228
7702 1136 3 0.417000 145.183034 22.174786 12.089911
7703 1137 2 -0.834000 122.608140 29.948034 11.718323
7704 1137 3 0.417000 122.446807 29.778875 10.790105
7705 1137 3 0.417000 121.771325 29.763558 12.144869
7706 1138 2 -0.834000 82.244670 4.323992 8.333179
7707 1138 3 0.417000 82.001013 5.062768 8.890918
7708 1138 3 0.417000 81.793588 3.573037 8.718955
7709 1139 2 -0.834000 79.256172 32.835443 8.243330
7710 1139 3 0.417000 78.945136 33.565955 8.777971
7711 1139 3 0.417000 78.873541 32.990149 7.379680
7712 1140 2 -0.834000 96.682779 1.328875 8.198836
7713 1140 3 0.417000 96.223384 0.630759 7.732122
7714 1140 3 0.417000 97.550448 1.356548 7.795578
7715 1141 2 -0.834000 116.878030 35.774175 11.703917
7716 1141 3 0.417000 116.975145 36.715002 11.851043
7717 1141 3 0.417000 117.146341 35.644564 10.794279
7718 1142 2 -0.834000 113.925639 7.125712 8.182518
7719 1142 3 0.417000 113.896625 6.894451 9.110908
7720 1142 3 0.417000 113.012110 7.287379 7.946806
7721 1143 2 -0.834000 125.563667 10.032442 8.316055
7722 1143 3 0.417000 126.500040 10.150919 8.156679
7723 1143 3 0.417000 125.351661 9.200285 7.893206
7724 1144 2 -0.834000 102.334314 27.101910 8.311080
7725 1144 3 0.417000 102.534942 27.504597 9.155961
7726 1144 3 0.417000 103.183017 27.022113 7.875686
7727 1145 2 -0.834000 10.077572 4.272661 8.159027
7728 1145 3 0.417000 10.794124 3.647875 8.047549
7729 1145 3 0.417000 10.296378 4.996081 7.571645
7730 1146 2 -0.834000 10.141159 24.326963 8.202504
7731 1146 3 0.417000 9.828068 24.750076 7.403015
7732 1146 3 0.417000 11.093374 24.416814 8.164483
7733 1147 2 -0.834000 64.898629 32.884197 8.234005
7734 1147 3 0.417000 63.979631 32.898296 7.966656
7735 1147 3 0.417000 65.212570 33.771724 8.060887
7736 1148 2 -0.834000 82.237718 38.485441 11.714706
7737 1148 3 0.417000 81.808688 38.336373 10.872124
7738 1148 3 0.417000 82.921712 37.817182 11.757288
7739 1149 2 -0.834000 108.176118 38.599132 8.310609
7740 1149 3 0.417000 108.193408 37.934085 7.622389
7741 1149 3 0.417000 108.912369 38.374791 8.879675
7742 1150 2 -0.834000 41.863486 32.882749 8.163556
7743 1150 3 0.417000 42.239980 32.594020 8.994893
7744 1150 3 0.417000 42.571919 33.360728 7.732407
7745 1151 2 -0.834000 64.875603 27.143230 11.773562
7746 1151 3 0.417000 65.097335 26.414827 11.193480
7747 1151 3 0.417000 63.984094 27.386181 11.523725
7748 1152 2 -0.834000 82.304658 12.901376 8.228292
7749 1152 3 0.417000 81.428153 12.844657 8.608759
7750 1152 3 0.417000 82.894701 12.888316 8.981890
7751 1153 2 -0.834000 30.261435 24.205126 11.651362
7752 1153 3 0.417000 30.194900 24.343994 10.706629
7753 1153 3 0.417000 29.630088 24.817518 12.028997
7754 1154 2 -0.834000 79.301455 38.473467 11.828257
7755 1154 3 0.417000 80.012957 38.786152 12.387027
7756 1154 3 0.417000 79.111581 37.592816 12.151730
7757 1155 2 -0.834000 67.778143 18.556179 11.653260
7758 1155 3 0.417000 67.000511 18.377733 11.124415
7759 1155 3 0.417000 67.464911 19.125477 12.356123
7760 1156 2 -0.834000 27.467123 1.411556 8.267723
7761 1156 3 0.417000 28.005741 1.317528 9.053395
7762 1156 3 0.417000 28.090343 1.626969 7.573874
7763 1157 2 -0.834000 1.508581 4.333192 11.837882
7764 1157 3 0.417000 1.768275 3.886914 12.643877
7765 1157 3 0.417000 1.844759 5.223839 11.937706
7766 1158 2 -0.834000 93.698062 7.225505 8.167980
7767 1158 3 0.417000 94.584054 7.100130 7.828081
7768 1158 3 0.417000 93.709732 6.806812 9.028672
7769 1159 2 -0.834000 111.095445 1.478997 11.756272
7770 1159 3 0.417000 111.028238 0.769603 11.117152
7771 1159 3 0.417000 111.596016 2.160089 11.307079
7772 1160 2 -0.834000 99.469347 10.000086 8.223779
7773 1160 3 0.417000 98.677607 9.768746 7.738122
7774 1160 3 0.417000 99.398393 9.512768 9.044583
7775 1161 2 -0.834000 105.349737 29.932538 8.201172
7776 1161 3 0.417000 105.434048 30.137313 9.132403
7777 1161 3 0.417000 104.516503 30.326775 7.943240
7778 1162 2 -0.834000 99.557797 4.261775 11.816029
7779 1162 3 0.417000 99.697199 4.029970 12.734215
7780 1162 3 0.417000 98.666327 4.609306 11.788928
7781 1163 2 -0.834000 10.109986 29.932209 8.202639
7782 1163 3 0.417000 9.838934 29.163925 7.700143
7783 1163 3 0.417000 10.448646 30.541046 7.546240
7784 1164 2 -0.834000 134.169912 21.332399 8.220176
7785 1164 3 0.417000 133.747126 21.719349 8.986826
7786 1164 3 0.417000 133.448941 21.136625 7.621757
7787 1165 2 -0.834000 18.698764 30.090571 11.668967
7788 1165 3 0.417000 18.006073 30.722044 11.863008
7789 1165 3 0.417000 19.196259 30.022116 12.483856
7790 1166 2 -0.834000 27.450188 15.639272 8.195670
7791 1166 3 0.417000 27.872440 14.814159 7.956667
7792 1166 3 0.417000 27.043279 15.944334 7.384748
7793 1167 2 -0.834000 10.174084 1.361902 11.765440
7794 1167 3 0.417000 9.236820 1.366174 11.571147
7795 1167 3 0.417000 10.222041 1.240967 12.713758
7796 1168 2 -0.834000 90.867426 24.303283 8.274084
7797 1168 3 0.417000 91.246574 24.940102 7.668328
7798 1168 3 0.417000 89.977519 24.164218 7.950110
7799 1169 2 -0.834000 134.069571 7.178815 8.339536
7800 1169 3 0.417000 134.660910 7.889498 8.091586
7801 1169 3 0.417000 134.569146 6.380359 8.168876
7802 1170 2 -0.834000 73.623520 32.759562 11.785531
7803 1170 3 0.417000 74.316273 32.433855 11.210866
7804 1170 3 0.417000 73.925659 32.548737 12.668988
7805 1171 2 -0.834000 70.592370 12.922158 11.826296
7806 1171 3 0.417000 70.568231 13.842740 12.087406
7807 1171 3 0.417000 70.918085 12.936429 10.926330
7808 1172 2 -0.834000 24.533751 35.660196 11.692592
7809 1172 3 0.417000 23.759853 35.411775 12.198161
7810 1172 3 0.417000 25.052687 36.193545 12.294653
7811 1173 2 -0.834000 105.245646 9.934617 8.339793
7812 1173 3 0.417000 104.691301 9.784841 7.573960
7813 1173 3 0.417000 104.886073 9.356927 9.013004
7814 1174 2 -0.834000 113.891804 18.597897 11.694816
7815 1174 3 0.417000 114.532926 19.150804 11.248174
7816 1174 3 0.417000 114.408998 17.884019 12.067804
7817 1175 2 -0.834000 24.422519 7.097289 8.266532
7818 1175 3 0.417000 23.519563 7.349875 8.459149
7819 1175 3 0.417000 24.344491 6.266439 7.797670
7820 1176 2 -0.834000 76.492574 35.711022 11.675134
7821 1176 3 0.417000 76.411601 35.956124 10.753397
7822 1176 3 0.417000 76.414753 36.537866 12.151060
7823 1177 2 -0.834000 50.403240 24.299979 11.701286
7824 1177 3 0.417000 50.887028 24.756947 12.389298
7825 1177 3 0.417000 50.424870 24.898542 10.954635
7826 1178 2 -0.834000 128.371196 9.939956 11.745310
7827 1178 3 0.417000 129.109433 9.458796 11.371514
7828 1178 3 0.417000 128.127843 10.570540 11.067537
7829 1179 2 -0.834000 73.538916 35.623682 8.187567
7830 1179 3 0.417000 73.181521 35.753142 7.309079
7831 1179 3 0.417000 74.048530 36.415720 8.358451
7832 1180 2 -0.834000 116.873469 4.269232 8.226726
7833 1180 3 0.417000 116.065158 4.018453 7.779540
7834 1180 3 0.417000 117.005055 5.186799 7.988004
7835 1181 2 -0.834000 79.360408 1.382817 8.293941
7836 1181 3 0.417000 79.291992 2.119635 8.901106
7837 1181 3 0.417000 80.292449 1.332368 8.081844
7838 1182 2 -0.834000 128.269304 9.936647 8.319067
7839 1182 3 0.417000 127.460251 10.057521 7.822021
7840 1182 3 0.417000 128.230166 10.601469 9.006608
7841 1183 2 -0.834000 50.509938 15.724439 8.153486
7842 1183 3 0.417000 50.134504 15.937348 7.299115
7843 1183 3 0.417000 51.108996 14.998726 7.978268
7844 1184 2 -0.834000 93.791142 29.976342 11.656635
7845 1184 3 0.417000 93.890839 29.711901 10.742106
7846 1184 3 0.417000 93.243137 29.294500 12.045238
7847 1185 2 -0.834000 10.006521 29.902735 11.723115
7848 1185 3 0.417000 10.390925 30.768363 11.861513
7849 1185 3 0.417000 9.533781 29.717557 12.534569
7850 1186 2 -0.834000 134.148805 32.851318 8.254467
7851 1186 3 0.417000 134.419551 31.974852 8.527846
7852 1186 3 0.417000 134.949153 33.256484 7.920527
7853 1187 2 -0.834000 36.082715 4.246724 11.769653
7854 1187 3 0.417000 36.550045 3.817528 12.486329
7855 1187 3 0.417000 35.678445 5.014995 12.172836
7856 1188 2 -0.834000 61.981624 4.237152 11.674363
7857 1188 3 0.417000 61.145495 4.575062 11.353524
7858 1188 3 0.417000 62.628863 4.876654 11.377124
7859 1189 2 -0.834000 87.900450 18.579320 11.782101
7860 1189 3 0.417000 88.304643 17.901603 11.240289
7861 1189 3 0.417000 88.599458 19.216045 11.931102
7862 1190 2 -0.834000 10.033860 7.133234 8.296081
7863 1190 3 0.417000 10.895188 6.722779 8.372715
7864 1190 3 0.417000 10.197505 8.064323 8.446165
7865 1191 2 -0.834000 47.573041 10.028726 11.791066
7866 1191 3 0.417000 47.971723 9.931269 10.926320
7867 1191 3 0.417000 47.792561 10.921566 12.057296
7868 1192 2 -0.834000 47.517218 35.808772 11.803891
7869 1192 3 0.417000 47.061765 35.333114 11.109237
7870 1192 3 0.417000 47.085429 35.527258 12.610451
7871 1193 2 -0.834000 122.668999 35.640963 11.736661
7872 1193 3 0.417000 123.130648 35.610288 10.898704
7873 1193 3 0.417000 122.369210 34.743056 11.878509
7874 1194 2 -0.834000 128.403520 27.094337 11.673399
7875 1194 3 0.417000 128.040843 26.278825 11.327513
7876 1194 3 0.417000 127.719027 27.745574 11.519807
7877 1195 2 -0.834000 44.767792 27.228673 8.172637
7878 1195 3 0.417000 45.311141 26.662150 8.720410
7879 1195 3 0.417000 45.246697 28.056577 8.134478
7880 1196 2 -0.834000 41.910939 35.743724 8.190567
7881 1196 3 0.417000 41.696861 35.337359 7.350763
7882 1196 3 0.417000 42.107841 35.007739 8.770038
7883 1197 2 -0.834000 134.088699 18.634889 11.791499
7884 1197 3 0.417000 133.229168 18.944499 11.505878
7885 1197 3 0.417000 134.193241 17.786250 11.361249
7886 1198 2 -0.834000 47.526856 32.879856 8.181429
7887 1198 3 0.417000 47.056955 32.763105 9.007137
7888 1198 3 0.417000 48.153444 32.156635 8.157549
7889 1199 2 -0.834000 18.755510 1.411336 11.721241
7890 1199 3 0.417000 18.337274 1.203485 12.556770
7891 1199 3 0.417000 18.349945 2.234187 11.447992
7892 1200 2 -0.834000 38.885273 12.866044 8.343648
7893 1200 3 0.417000 38.468574 13.121285 9.166720
7894 1200 3 0.417000 39.818501 13.021854 8.488703
7895 1201 2 -0.834000 44.725005 24.253667 8.171330
7896 1201 3 0.417000 44.651448 23.385947 8.568677
7897 1201 3 0.417000 44.906158 24.839584 8.906256
7898 1202 2 -0.834000 119.787294 1.345331 8.227323
7899 1202 3 0.417000 119.464755 2.201809 8.507761
7900 1202 3 0.417000 119.372672 1.199397 7.377015
7901 1203 2 -0.834000 4.320859 15.627822 11.724212
7902 1203 3 0.417000 4.425302 14.973861 12.415340
7903 1203 3 0.417000 4.377691 16.468378 12.178599
7904 1204 2 -0.834000 134.174037 12.771310 11.726261
7905 1204 3 0.417000 134.718158 13.309679 12.300999
7906 1204 3 0.417000 133.653083 13.401906 11.229082
7907 1205 2 -0.834000 108.073948 21.408017 8.220937
7908 1205 3 0.417000 108.911145 21.701776 7.861717
7909 1205 3 0.417000 107.834314 22.084067 8.854785
7910 1206 2 -0.834000 39.026227 24.187906 11.751790
7911 1206 3 0.417000 38.154420 23.857310 11.535247
7912 1206 3 0.417000 39.424243 23.491246 12.273786
7913 1207 2 -0.834000 85.108247 15.719144 8.339016
7914 1207 3 0.417000 85.666446 16.259237 7.779601
7915 1207 3 0.417000 84.512988 16.341617 8.756660
7916 1208 2 -0.834000 76.485595 18.600717 11.661365
7917 1208 3 0.417000 75.893817 17.897761 11.929475
7918 1208 3 0.417000 77.338139 18.175118 11.570444
7919 1209 2 -0.834000 27.334376 1.472120 11.827337
7920 1209 3 0.417000 27.571992 2.043775 11.097282
7921 1209 3 0.417000 27.548217 1.980504 12.609673
7922 1210 2 -0.834000 134.071411 27.165157 8.335965
7923 1210 3 0.417000 133.917546 27.984378 7.865396
7924 1210 3 0.417000 135.024242 27.076623 8.358447
7925 1211 2 -0.834000 87.933327 35.617647 8.241061
7926 1211 3 0.417000 88.668170 36.004389 8.717158
7927 1211 3 0.417000 87.196986 36.202456 8.420035
7928 1212 2 -0.834000 131.211720 15.685671 11.674698
7929 1212 3 0.417000 131.352020 15.689984 12.621550
7930 1212 3 0.417000 130.429912 16.222618 11.545487
7931 1213 2 -0.834000 53.381435 4.222452 11.783456
7932 1213 3 0.417000 52.918078 4.088075 10.956731
7933 1213 3 0.417000 52.910566 3.677345 12.413831
7934 1214 2 -0.834000 87.883096 4.374056 11.814373
7935 1214 3 0.417000 88.654611 4.226910 11.267248
7936 1214 3 0.417000 87.465201 5.148026 11.436794
7937 1215 2 -0.834000 18.840823 12.760359 11.685925
7938 1215 3 0.417000 19.247317 12.898417 10.830394
7939 1215 3 0.417000 18.977689 13.584856 12.152512
7940 1216 2 -0.834000 134.217407 35.650986 11.741818
7941 1216 3 0.417000 134.187510 36.567406 12.016615
7942 1216 3 0.417000 134.534529 35.179655 12.512216
7943 1217 2 -0.834000 128.290535 15.796560 11.717249
7944 1217 3 0.417000 128.930306 15.103020 11.878269
7945 1217 3 0.417000 127.989773 15.642416 10.821697
7946 1218 2 -0.834000 116.853375 7.049509 11.751642
7947 1218 3 0.417000 115.983949 7.323989 11.460110
7948 1218 3 0.417000 117.023148 7.578359 12.531210
7949 1219 2 -0.834000 139.962011 27.089199 8.211616
7950 1219 3 0.417000 139.795528 27.522775 7.374641
7951 1219 3 0.417000 140.862508 27.328467 8.430905
7952 1220 2 -0.834000 122.688223 38.528407 8.238501
7953 1220 3 0.417000 122.065340 38.176376 8.874365
7954 1220 3 0.417000 122.173746 39.140221 7.711977
7955 1221 2 -0.834000 82.167481 24.274592 8.209035
7956 1221 3 0.417000 82.871879 23.860351 7.710579
7957 1221 3 0.417000 82.357844 24.055321 9.121128
7958 1222 2 -0.834000 125.577478 38.526893 8.204886
7959 1222 3 0.417000 125.589892 37.896046 7.485088
7960 1222 3 0.417000 126.304939 38.262695 8.768120
7961 1223 2 -0.834000 131.332664 12.923618 11.691319
7962 1223 3 0.417000 131.602305 12.604688 12.552602
7963 1223 3 0.417000 131.906039 13.671126 11.521899
7964 1224 2 -0.834000 18.802264 38.506133 11.652354
7965 1224 3 0.417000 18.364782 39.166023 12.190300
7966 1224 3 0.417000 19.018427 38.963683 10.839856
7967 1225 2 -0.834000 44.774891 12.917805 11.742096
7968 1225 3 0.417000 44.650739 12.977692 10.794872
7969 1225 3 0.417000 44.047525 13.418443 12.111598
7970 1226 2 -0.834000 111.099364 7.115617 8.161113
7971 1226 3 0.417000 111.341274 7.141835 7.235358
7972 1226 3 0.417000 110.513824 7.863844 8.277434
7973 1227 2 -0.834000 145.656304 12.894939 8.304943
7974 1227 3 0.417000 146.103213 12.079014 8.530269
7975 1227 3 0.417000 145.147829 12.681878 7.522453
7976 1228 2 -0.834000 111.038985 21.522872 11.751100
7977 1228 3 0.417000 111.051499 21.624436 10.799385
7978 1228 3 0.417000 111.329537 22.370884 12.086788
7979 1229 2 -0.834000 76.382258 4.199474 8.153195
7980 1229 3 0.417000 77.071678 3.550624 8.294353
7981 1229 3 0.417000 75.567998 3.698403 8.199462
7982 1230 2 -0.834000 85.121253 15.642189 11.751746
7983 1230 3 0.417000 85.389253 15.367251 10.874924
7984 1230 3 0.417000 84.751636 16.516246 11.626688
7985 1231 2 -0.834000 125.451727 32.862149 8.324616
7986 1231 3 0.417000 126.090471 33.278047 7.745594
7987 1231 3 0.417000 125.612230 33.256717 9.181813
7988 1232 2 -0.834000 108.230227 32.803773 11.732340
7989 1232 3 0.417000 107.677024 32.027522 11.819697
7990 1232 3 0.417000 107.970318 33.190852 10.896368
7991 1233 2 -0.834000 128.389771 32.868883 11.724122
7992 1233 3 0.417000 128.759432 32.581200 12.558880
7993 1233 3 0.417000 128.084483 32.063481 11.306559
7994 1234 2 -0.834000 111.025397 38.612908 11.770948
7995 1234 3 0.417000 110.743730 39.510695 11.595239
7996 1234 3 0.417000 111.688000 38.434320 11.103644
7997 1235 2 -0.834000 102.315921 9.902004 11.767641
7998 1235 3 0.417000 102.345575 10.682308 12.321245
7999 1235 3 0.417000 102.855247 9.259765 12.229040
8000 1236 2 -0.834000 30.250132 9.964220 8.298904
8001 1236 3 0.417000 30.941083 10.622076 8.376654
8002 1236 3 0.417000 29.621587 10.347500 7.687136
8003 1237 2 -0.834000 70.763245 12.848897 8.314569
8004 1237 3 0.417000 71.439870 13.335504 8.785338
8005 1237 3 0.417000 70.386621 13.486886 7.708471
8006 1238 2 -0.834000 64.988440 1.467636 8.341081
8007 1238 3 0.417000 65.879217 1.685565 8.615406
8008 1238 3 0.417000 64.737606 2.179646 7.752560
8009 1239 2 -0.834000 36.008324 1.517075 11.751438
8010 1239 3 0.417000 36.444350 0.971816 12.406270
8011 1239 3 0.417000 35.205324 1.812005 12.180901
8012 1240 2 -0.834000 122.555583 12.763569 11.704365
8013 1240 3 0.417000 123.006724 11.996065 12.055992
8014 1240 3 0.417000 123.256955 13.319928 11.365581
8015 1241 2 -0.834000 36.124501 4.233725 8.176759
8016 1241 3 0.417000 35.656968 3.674366 8.797052
8017 1241 3 0.417000 37.015738 3.884794 8.163522
8018 1242 2 -0.834000 67.705757 32.771396 11.656389
8019 1242 3 0.417000 66.961107 33.081689 11.141174
8020 1242 3 0.417000 67.954276 31.943793 11.244632
8021 1243 2 -0.834000 96.687180 35.650523 11.702331
8022 1243 3 0.417000 96.219117 36.435535 11.417889
8023 1243 3 0.417000 97.465152 35.620000 11.145501
8024 1244 2 -0.834000 73.656272 27.125146 8.249551
8025 1244 3 0.417000 73.171735 27.003655 9.066065
8026 1244 3 0.417000 74.545795 26.836075 8.453064
8027 1245 2 -0.834000 36.038170 32.847821 11.789758
8028 1245 3 0.417000 35.324604 33.409335 11.486845
8029 1245 3 0.417000 35.907102 32.782449 12.735686
8030 1246 2 -0.834000 131.199665 15.808778 8.215257
8031 1246 3 0.417000 131.445038 15.820627 9.140397
8032 1246 3 0.417000 130.718989 14.988403 8.104949
8033 1247 2 -0.834000 10.024801 12.826716 11.756474
8034 1247 3 0.417000 9.713248 13.720995 11.617084
8035 1247 3 0.417000 10.974420 12.884217 11.650880
8036 1248 2 -0.834000 122.667776 32.849732 11.826855
8037 1248 3 0.417000 121.886824 33.013774 12.355471
8038 1248 3 0.417000 122.469717 32.043885 11.349764
8039 1249 2 -0.834000 12.927635 35.802648 8.223450
8040 1249 3 0.417000 13.493058 36.570350 8.138818
8041 1249 3 0.417000 13.471553 35.151708 8.666916
8042 1250 2 -0.834000 59.113995 1.462621 11.835753
8043 1250 3 0.417000 59.855366 1.922764 11.442220
8044 1250 3 0.417000 59.111214 1.749010 12.749102
8045 1251 2 -0.834000 47.666738 12.861553 11.667217
8046 1251 3 0.417000 47.266258 12.023294 11.436634
8047 1251 3 0.417000 48.294552 12.645952 12.356853
8048 1252 2 -0.834000 116.876713 21.503817 11.732880
8049 1252 3 0.417000 117.544621 20.826678 11.625113
8050 1252 3 0.417000 117.368172 22.325031 11.750415
8051 1253 2 -0.834000 85.010864 30.036575 8.205342
8052 1253 3 0.417000 85.415999 30.491322 8.943788
8053 1253 3 0.417000 84.496146 29.336899 8.607525
8054 1254 2 -0.834000 12.887646 18.616504 11.771391
8055 1254 3 0.417000 11.961102 18.457282 11.591401
8056 1254 3 0.417000 12.888022 19.194789 12.534162
8057 1255 2 -0.834000 119.701016 24.304654 8.192446
8058 1255 3 0.417000 119.365179 23.683793 7.545935
8059 1255 3 0.417000 119.503521 25.165570 7.823594
8060 1256 2 -0.834000 36.097810 7.112802 8.188929
8061 1256 3 0.417000 36.522232 7.820931 7.704521
8062 1256 3 0.417000 36.407952 6.312564 7.765062
8063 1257 2 -0.834000 128.443824 18.524639 11.798791
8064 1257 3 0.417000 128.798305 17.677789 12.069753
8065 1257 3 0.417000 128.884430 18.715374 10.970710
8066 1258 2 -0.834000 122.577225 10.070888 11.802326
8067 1258 3 0.417000 123.358098 10.533320 11.497982
8068 1258 3 0.417000 122.737181 9.154793 11.575574
8069 1259 2 -0.834000 41.746112 12.899590 11.834868
8070 1259 3 0.417000 41.298323 12.787257 12.673378
8071 1259 3 0.417000 41.415616 13.731504 11.495865
8072 1260 2 -0.834000 44.630486 35.795788 8.347523
8073 1260 3 0.417000 45.164250 36.161183 9.053083
8074 1260 3 0.417000 45.195995 35.830751 7.576025
8075 1261 2 -0.834000 64.875649 27.184443 8.211023
8076 1261 3 0.417000 64.478064 26.336729 8.012182
8077 1261 3 0.417000 65.396987 27.026305 8.998062
8078 1262 2 -0.834000 90.917152 15.630862 8.200321
8079 1262 3 0.417000 90.263848 16.283490 8.452317
8080 1262 3 0.417000 90.412925 14.830390 8.054608
8081 1263 2 -0.834000 73.615597 10.015679 8.153745
8082 1263 3 0.417000 74.558648 9.918692 8.021538
8083 1263 3 0.417000 73.532657 10.752416 8.759197
8084 1264 2 -0.834000 142.869958 24.372998 11.720762
8085 1264 3 0.417000 143.434041 24.431310 12.491892
8086 1264 3 0.417000 142.929976 23.457389 11.448201
8087 1265 2 -0.834000 15.802924 38.638400 11.683662
8088 1265 3 0.417000 16.605255 39.022892 12.036739
8089 1265 3 0.417000 15.304078 38.372551 12.456131
8090 1266 2 -0.834000 102.420032 24.354243 11.671868
8091 1266 3 0.417000 101.759225 25.028043 11.831737
8092 1266 3 0.417000 102.551130 23.939571 12.524565
8093 1267 2 -0.834000 18.821368 35.676196 8.312728
8094 1267 3 0.417000 19.350884 36.447717 8.514224
8095 1267 3 0.417000 19.335296 34.939406 8.643257
8096 1268 2 -0.834000 1.387726 9.989338 8.267481
8097 1268 3 0.417000 0.756986 9.708810 7.604380
8098 1268 3 0.417000 1.136397 10.890043 8.471923
8099 1269 2 -0.834000 105.321270 35.719548 11.773627
8100 1269 3 0.417000 106.253259 35.828206 11.962892
8101 1269 3 0.417000 105.190287 34.771670 11.749083
8102 1270 2 -0.834000 105.240305 1.373926 11.832575
8103 1270 3 0.417000 104.948899 1.393552 10.921022
8104 1270 3 0.417000 104.923503 2.197467 12.203586
8105 1271 2 -0.834000 59.044231 12.955293 8.302896
8106 1271 3 0.417000 59.278773 12.105009 8.674702
8107 1271 3 0.417000 59.795512 13.516559 8.494698
8108 1272 2 -0.834000 38.981471 38.551215 8.257707
8109 1272 3 0.417000 38.897908 38.961044 9.118688
8110 1272 3 0.417000 38.419632 37.777670 8.304579
8111 1273 2 -0.834000 7.176994 27.227460 8.160263
8112 1273 3 0.417000 7.657241 27.461458 8.954517
8113 1273 3 0.417000 6.724232 28.032116 7.907741
8114 1274 2 -0.834000 24.613913 1.501520 8.260951
8115 1274 3 0.417000 24.062765 1.638974 9.031388
8116 1274 3 0.417000 25.125590 2.306920 8.185135
8117 1275 2 -0.834000 1.502697 32.777147 8.257026
8118 1275 3 0.417000 1.039332 32.586429 9.072594
8119 1275 3 0.417000 1.924011 33.622477 8.412409
8120 1276 2 -0.834000 131.285808 18.618634 8.296865
8121 1276 3 0.417000 131.689299 18.988326 9.082202
8122 1276 3 0.417000 131.105380 17.706998 8.526206
8123 1277 2 -0.834000 113.973565 7.097229 11.690136
8124 1277 3 0.417000 113.939448 6.245454 11.254765
8125 1277 3 0.417000 113.171162 7.540153 11.414093
8126 1278 2 -0.834000 7.233407 29.908250 11.654961
8127 1278 3 0.417000 7.759760 30.689949 11.487235
8128 1278 3 0.417000 7.254964 29.803976 12.606220
8129 1279 2 -0.834000 90.794310 32.790799 8.212688
8130 1279 3 0.417000 90.833722 33.306633 7.407334
8131 1279 3 0.417000 90.925266 31.887129 7.925526
8132 1280 2 -0.834000 56.227183 1.433134 11.727901
8133 1280 3 0.417000 56.355962 2.082454 12.419299
8134 1280 3 0.417000 57.113087 1.188396 11.460489
8135 1281 2 -0.834000 50.497759 32.952899 11.721980
8136 1281 3 0.417000 51.450781 32.904279 11.796925
8137 1281 3 0.417000 50.199940 32.053859 11.860773
8138 1282 2 -0.834000 125.490559 10.090721 11.732538
8139 1282 3 0.417000 126.064316 10.365938 12.447583
8140 1282 3 0.417000 124.851773 10.798942 11.651253
8141 1283 2 -0.834000 113.915407 21.445280 8.338741
8142 1283 3 0.417000 114.049153 20.566684 7.983194
8143 1283 3 0.417000 113.552152 21.298049 9.212011
8144 1284 2 -0.834000 64.837140 29.996017 11.728072
8145 1284 3 0.417000 64.164811 30.155452 12.390482
8146 1284 3 0.417000 64.483342 29.285380 11.193231
8147 1285 2 -0.834000 82.214595 1.384056 11.792640
8148 1285 3 0.417000 82.578941 1.244589 10.918550
8149 1285 3 0.417000 82.918679 1.810867 12.280829
8150 1286 2 -0.834000 53.453163 30.094773 11.686669
8151 1286 3 0.417000 53.663670 29.417816 11.043516
8152 1286 3 0.417000 54.133330 30.010744 12.354909
8153 1287 2 -0.834000 62.051048 15.703021 8.328403
8154 1287 3 0.417000 62.114836 16.652107 8.221641
8155 1287 3 0.417000 61.150943 15.493442 8.079166
8156 1288 2 -0.834000 99.424124 15.688806 8.326936
8157 1288 3 0.417000 99.103645 14.986865 8.893332
8158 1288 3 0.417000 99.559100 15.268942 7.477391
8159 1289 2 -0.834000 113.913958 12.828412 8.313307
8160 1289 3 0.417000 113.516137 11.977415 8.129525
8161 1289 3 0.417000 114.845313 12.638561 8.426299
8162 1290 2 -0.834000 148.565104 4.283978 8.200329
8163 1290 3 0.417000 148.870496 3.377022 8.220300
8164 1290 3 0.417000 147.753224 4.275045 8.707283
8165 1291 2 -0.834000 24.573116 24.279940 11.766510
8166 1291 3 0.417000 23.926934 24.818257 11.309460
8167 1291 3 0.417000 24.214771 24.170957 12.647387
8168 1292 2 -0.834000 96.534788 24.244511 11.704364
8169 1292 3 0.417000 96.544234 23.403862 11.246705
8170 1292 3 0.417000 96.722531 24.890562 11.023480
8171 1293 2 -0.834000 24.553958 38.614080 11.721991
8172 1293 3 0.417000 25.119768 37.843735 11.670429
8173 1293 3 0.417000 23.677623 38.281623 11.527721
8174 1294 2 -0.834000 36.060364 27.187043 8.181702
8175 1294 3 0.417000 36.454113 28.011558 8.466953
8176 1294 3 0.417000 36.734213 26.773244 7.642322
8177 1295 2 -0.834000 15.870314 4.248570 8.209351
8178 1295 3 0.417000 15.964817 4.494616 7.289154
8179 1295 3 0.417000 16.738584 4.391013 8.586246
8180 1296 2 -0.834000 82.168627 30.066154 8.174599
8181 1296 3 0.417000 81.535770 29.421534 8.491125
8182 1296 3 0.417000 82.316458 30.644714 8.922694
8183 1297 2 -0.834000 21.667788 24.227011 8.250633
8184 1297 3 0.417000 21.653348 24.120272 9.201753
8185 1297 3 0.417000 20.748264 24.333875 8.007144
8186 1298 2 -0.834000 44.766060 38.648885 11.756474
8187 1298 3 0.417000 44.824168 39.470829 12.243571
8188 1298 3 0.417000 44.223855 38.858416 10.995986
8189 1299 2 -0.834000 139.819854 27.067093 11.653567
8190 1299 3 0.417000 139.894487 27.422788 10.768049
8191 1299 3 0.417000 139.607153 27.824249 12.199189
8192 1300 2 -0.834000 137.095143 27.189327 8.318474
8193 1300 3 0.417000 137.180007 27.696964 9.125527
8194 1300 3 0.417000 136.589436 27.752655 7.732681
8195 1301 2 -0.834000 116.787160 38.558499 11.694047
8196 1301 3 0.417000 116.714469 39.373024 12.191538
8197 1301 3 0.417000 117.699640 38.290937 11.803696
8198 1302 2 -0.834000 56.346506 18.594146 11.810809
8199 1302 3 0.417000 56.173672 17.683147 12.048383
8200 1302 3 0.417000 55.679658 18.802154 11.156380
8201 1303 2 -0.834000 131.205412 18.631561 11.733999
8202 1303 3 0.417000 130.840812 19.457780 12.051271
8203 1303 3 0.417000 132.144239 18.799272 11.652097
8204 1304 2 -0.834000 142.693355 27.146150 8.191126
8205 1304 3 0.417000 141.815599 26.911289 8.492151
8206 1304 3 0.417000 143.283000 26.692548 8.793451
8207 1305 2 -0.834000 113.903208 15.725802 11.794741
8208 1305 3 0.417000 114.362664 14.909482 11.991599
8209 1305 3 0.417000 113.930230 16.219995 12.614055
8210 1306 2 -0.834000 24.441099 12.824759 11.772461
8211 1306 3 0.417000 23.646032 12.721663 11.249516
8212 1306 3 0.417000 24.575637 13.771234 11.820594
8213 1307 2 -0.834000 21.583641 7.083437 11.665368
8214 1307 3 0.417000 22.034295 7.269358 12.489125
8215 1307 3 0.417000 22.247471 6.663947 11.118020
8216 1308 2 -0.834000 36.146226 32.886469 8.165666
8217 1308 3 0.417000 36.646368 32.649969 7.384539
8218 1308 3 0.417000 36.785257 32.857356 8.877722
8219 1309 2 -0.834000 116.789346 32.845792 8.204689
8220 1309 3 0.417000 116.489000 31.999070 8.534971
8221 1309 3 0.417000 116.651997 33.450305 8.934025
8222 1310 2 -0.834000 27.404628 21.520542 8.258122
8223 1310 3 0.417000 26.881567 21.064409 8.917350
8224 1310 3 0.417000 26.819278 21.608167 7.505847
8225 1311 2 -0.834000 79.228541 29.989306 11.700492
8226 1311 3 0.417000 79.586025 29.289471 12.246996
8227 1311 3 0.417000 78.785331 29.532741 10.985408
8228 1312 2 -0.834000 70.593352 21.419019 11.805954
8229 1312 3 0.417000 69.995295 21.487448 12.550183
8230 1312 3 0.417000 71.166382 22.181377 11.887677
8231 1313 2 -0.834000 102.449445 38.578863 11.837599
8232 1313 3 0.417000 102.153652 37.680968 11.987675
8233 1313 3 0.417000 101.733739 39.124862 12.162995
8234 1314 2 -0.834000 70.715324 7.218680 11.739541
8235 1314 3 0.417000 70.545889 8.160223 11.707600
8236 1314 3 0.417000 71.595627 7.145625 12.108271
8237 1315 2 -0.834000 85.016296 1.454314 11.817112
8238 1315 3 0.417000 84.796645 1.027000 10.989231
8239 1315 3 0.417000 85.194504 0.732432 12.419906
8240 1316 2 -0.834000 53.405952 18.543438 11.679470
8241 1316 3 0.417000 52.768649 18.611838 10.968556
8242 1316 3 0.417000 54.245592 18.752126 11.269976
8243 1317 2 -0.834000 27.483133 4.316109 8.166555
8244 1317 3 0.417000 27.877739 5.006026 8.699971
8245 1317 3 0.417000 27.850838 4.448418 7.292759
8246 1318 2 -0.834000 33.215705 1.507325 11.692677
8247 1318 3 0.417000 32.758344 0.956122 12.327680
8248 1318 3 0.417000 33.699066 0.890191 11.143369
8249 1319 2 -0.834000 88.022098 24.246103 8.204718
8250 1319 3 0.417000 87.430861 23.682230 7.706002
8251 1319 3 0.417000 87.668636 24.237388 9.094223
8252 1320 2 -0.834000 50.482747 15.809102 11.774807
8253 1320 3 0.417000 50.993867 15.122684 12.203547
8254 1320 3 0.417000 50.671740 16.599947 12.279859
8255 1321 2 -0.834000 67.826287 29.905068 8.245815
8256 1321 3 0.417000 68.285294 30.707173 8.495158
8257 1321 3 0.417000 68.493281 29.371160 7.814198
8258 1322 2 -0.834000 79.281020 9.902358 8.169589
8259 1322 3 0.417000 80.135008 10.203709 7.859551
8260 1322 3 0.417000 78.896927 9.453613 7.416374
8261 1323 2 -0.834000 142.760969 1.407265 11.673224
8262 1323 3 0.417000 141.861631 1.455952 11.997343
8263 1323 3 0.417000 142.947774 0.469780 11.623639
8264 1324 2 -0.834000 134.126769 38.621288 8.245503
8265 1324 3 0.417000 134.331842 39.241969 8.944739
8266 1324 3 0.417000 134.693711 38.881691 7.519557
8267 1325 2 -0.834000 99.487255 18.512158 8.157455
8268 1325 3 0.417000 98.530108 18.517178 8.166250
8269 1325 3 0.417000 99.718655 17.718865 7.674370
8270 1326 2 -0.834000 93.811385 27.198958 8.216724
8271 1326 3 0.417000 94.194293 26.723745 8.954142
8272 1326 3 0.417000 94.536510 27.711052 7.858694
8273 1327 2 -0.834000 41.755931 30.082720 8.184890
8274 1327 3 0.417000 41.816338 30.955779 7.797140
8275 1327 3 0.417000 41.066218 29.645531 7.685497
8276 1328 2 -0.834000 99.616486 32.868657 8.181314
8277 1328 3 0.417000 99.558453 32.090087 7.627515
8278 1328 3 0.417000 99.071546 33.519241 7.738582
8279 1329 2 -0.834000 82.250200 21.479446 11.686491
8280 1329 3 0.417000 81.853151 20.748898 12.160710
8281 1329 3 0.417000 82.810309 21.909104 12.332947
8282 1330 2 -0.834000 148.494918 35.646975 11.839226
8283 1330 3 0.417000 149.448313 35.689168 11.913324
8284 1330 3 0.417000 148.314714 35.875779 10.927410
8285 1331 2 -0.834000 134.222060 4.226637 11.810351
8286 1331 3 0.417000 133.339724 3.896167 11.641516
8287 1331 3 0.417000 134.464498 3.843721 12.653459
8288 1332 2 -0.834000 13.038799 27.052109 11.821496
8289 1332 3 0.417000 12.468839 27.671468 12.277315
8290 1332 3 0.417000 12.796188 27.136565 10.899412
8291 1333 2 -0.834000 1.351025 35.637487 8.299087
8292 1333 3 0.417000 0.518187 35.170990 8.228411
8293 1333 3 0.417000 1.149035 36.410709 8.825926
8294 1334 2 -0.834000 122.537313 18.624032 8.205135
8295 1334 3 0.417000 122.592341 19.569693 8.067549
8296 1334 3 0.417000 123.199872 18.439418 8.870843
8297 1335 2 -0.834000 64.961131 21.481948 8.279323
8298 1335 3 0.417000 64.321859 21.824455 8.904024
8299 1335 3 0.417000 65.603728 21.023363 8.820618
8300 1336 2 -0.834000 67.742722 35.750630 8.297077
8301 1336 3 0.417000 68.458493 35.140977 8.117558
8302 1336 3 0.417000 67.052978 35.498390 7.683187
8303 1337 2 -0.834000 76.475937 29.956740 8.309242
8304 1337 3 0.417000 76.578885 30.035728 7.360878
8305 1337 3 0.417000 77.119387 30.565507 8.672017
8306 1338 2 -0.834000 64.881700 35.693139 8.330474
8307 1338 3 0.417000 65.099819 36.556193 8.682317
8308 1338 3 0.417000 64.849401 35.122203 9.098081
8309 1339 2 -0.834000 67.718650 7.060640 11.693639
8310 1339 3 0.417000 67.596138 6.374494 11.037570
8311 1339 3 0.417000 67.742209 6.592975 12.528484
8312 1340 2 -0.834000 64.895768 18.659624 8.323815
8313 1340 3 0.417000 64.822749 17.983208 7.650494
8314 1340 3 0.417000 65.812305 18.933614 8.290340
8315 1341 2 -0.834000 79.401596 24.336853 11.753050
8316 1341 3 0.417000 78.549151 24.528761 12.143869
8317 1341 3 0.417000 79.766816 23.643300 12.302442
8318 1342 2 -0.834000 56.303999 29.938418 11.779729
8319 1342 3 0.417000 56.064833 30.861045 11.867991
8320 1342 3 0.417000 56.794012 29.895012 10.958610
8321 1343 2 -0.834000 62.012109 27.129353 11.774188
8322 1343 3 0.417000 62.962643 27.030215 11.720446
8323 1343 3 0.417000 61.881926 27.894896 12.333856
8324 1344 2 -0.834000 18.731175 32.765675 11.833781
8325 1344 3 0.417000 17.838087 32.676978 11.500979
8326 1344 3 0.417000 18.878500 33.710487 11.876869
8327 1345 2 -0.834000 119.695767 10.030032 11.665695
8328 1345 3 0.417000 119.376581 10.841369 12.060770
8329 1345 3 0.417000 120.603164 9.959517 11.962156
8330 1346 2 -0.834000 105.219729 35.697812 8.214353
8331 1346 3 0.417000 105.873624 35.865867 7.535818
8332 1346 3 0.417000 105.732350 35.522230 9.003418
8333 1347 2 -0.834000 24.513519 7.205755 11.779402
8334 1347 3 0.417000 24.493354 7.901812 11.122645
8335 1347 3 0.417000 23.652751 6.791755 11.716829
8336 1348 2 -0.834000 87.881360 15.636109 8.299570
8337 1348 3 0.417000 87.653722 15.560331 9.226215
8338 1348 3 0.417000 87.060265 15.470256 7.836398
8339 1349 2 -0.834000 99.582886 27.089479 8.284807
8340 1349 3 0.417000 99.561282 27.810313 8.914222
8341 1349 3 0.417000 99.328823 26.319269 8.793197
8342 1350 2 -0.834000 30.325882 1.446406 8.332168
8343 1350 3 0.417000 30.102200 1.562979 7.408800
8344 1350 3 0.417000 30.158426 0.519865 8.504540
8345 1351 2 -0.834000 87.970183 38.505855 8.230161
8346 1351 3 0.417000 87.366614 39.102367 8.673004
8347 1351 3 0.417000 88.794850 38.601460 8.706622
8348 1352 2 -0.834000 24.549613 18.625770 8.226370
8349 1352 3 0.417000 24.912829 18.658507 9.111375
8350 1352 3 0.417000 24.249214 19.518702 8.057063
8351 1353 2 -0.834000 108.133608 1.429285 11.657400
8352 1353 3 0.417000 108.490147 1.476944 10.770359
8353 1353 3 0.417000 108.855687 1.706143 12.221477
8354 1354 2 -0.834000 137.038334 32.946842 11.708715
8355 1354 3 0.417000 137.782954 33.516001 11.514212
8356 1354 3 0.417000 137.289011 32.489590 12.511406
8357 1355 2 -0.834000 145.727780 18.636367 11.729247
8358 1355 3 0.417000 146.471358 18.538730 12.324050
8359 1355 3 0.417000 145.273952 19.420140 12.039040
8360 1356 2 -0.834000 24.612898 30.099621 11.655340
8361 1356 3 0.417000 23.762743 30.127358 11.216367
8362 1356 3 0.417000 24.411929 30.257326 12.577822
8363 1357 2 -0.834000 73.484612 21.355440 11.816568
8364 1357 3 0.417000 74.088682 22.086191 11.948226
8365 1357 3 0.417000 72.817577 21.470548 12.493358
8366 1358 2 -0.834000 85.078667 18.572300 11.798574
8367 1358 3 0.417000 84.208665 18.622449 11.402577
8368 1358 3 0.417000 85.272671 17.635630 11.833825
8369 1359 2 -0.834000 134.117453 15.702732 11.658303
8370 1359 3 0.417000 134.693273 15.540922 10.910987
8371 1359 3 0.417000 133.734420 14.847992 11.855627
8372 1360 2 -0.834000 145.686574 27.146722 8.229540
8373 1360 3 0.417000 145.624807 26.257106 8.577391
8374 1360 3 0.417000 145.644805 27.036416 7.279634
8375 1361 2 -0.834000 12.892524 21.480868 8.266877
8376 1361 3 0.417000 12.330431 21.686694 7.519937
8377 1361 3 0.417000 12.932597 20.524608 8.280758
8378 1362 2 -0.834000 7.219042 38.476316 8.205735
8379 1362 3 0.417000 8.031402 38.465968 8.711893
8380 1362 3 0.417000 6.696054 37.765631 8.576736
8381 1363 2 -0.834000 139.960994 35.814153 11.650114
8382 1363 3 0.417000 139.868480 36.762708 11.561146
8383 1363 3 0.417000 140.894836 35.678081 11.810289
8384 1364 2 -0.834000 85.159226 32.765715 8.348475
8385 1364 3 0.417000 85.616090 32.699691 9.187014
8386 1364 3 0.417000 85.852365 32.699448 7.691665
8387 1365 2 -0.834000 10.109168 18.549253 8.189553
8388 1365 3 0.417000 9.482218 17.861991 8.415021
8389 1365 3 0.417000 10.933012 18.260833 8.582396
8390 1366 2 -0.834000 119.661442 21.489828 8.263067
8391 1366 3 0.417000 119.123721 20.766375 8.585098
8392 1366 3 0.417000 119.052958 22.040127 7.769963
8393 1367 2 -0.834000 85.109347 9.932125 11.823488
8394 1367 3 0.417000 85.093628 8.975452 11.851094
8395 1367 3 0.417000 85.803415 10.178483 12.434887
8396 1368 2 -0.834000 131.219848 21.406452 11.774627
8397 1368 3 0.417000 130.829870 20.671387 12.247733
8398 1368 3 0.417000 131.171719 22.139473 12.388302
8399 1369 2 -0.834000 145.620820 27.097358 11.719174
8400 1369 3 0.417000 145.948343 27.924000 11.364739
8401 1369 3 0.417000 146.038648 27.021744 12.577040
8402 1370 2 -0.834000 105.191587 27.132591 11.745767
8403 1370 3 0.417000 104.859645 27.987550 12.019795
8404 1370 3 0.417000 105.591599 27.293144 10.891106
8405 1371 2 -0.834000 36.129173 29.940511 11.818838
8406 1371 3 0.417000 36.636519 29.225486 11.434689
8407 1371 3 0.417000 36.503710 30.058544 12.691777
8408 1372 2 -0.834000 50.532111 1.343866 11.717065
8409 1372 3 0.417000 50.737415 0.491146 11.333723
8410 1372 3 0.417000 51.331913 1.857184 11.602812
8411 1373 2 -0.834000 18.675025 1.432847 8.150258
8412 1373 3 0.417000 18.773215 0.524414 8.435458
8413 1373 3 0.417000 18.016843 1.396678 7.456197
8414 1374 2 -0.834000 21.597311 21.474380 11.806763
8415 1374 3 0.417000 21.432577 20.533707 11.741748
8416 1374 3 0.417000 21.873802 21.607498 12.713440
8417 1375 2 -0.834000 122.656487 15.621998 8.246784
8418 1375 3 0.417000 122.498517 15.239864 9.110063
8419 1375 3 0.417000 123.298568 15.039854 7.840492
8420 1376 2 -0.834000 27.486195 35.686761 11.757552
8421 1376 3 0.417000 26.612150 35.346192 11.948050
8422 1376 3 0.417000 27.520056 35.740123 10.802440
8423 1377 2 -0.834000 56.166205 24.209768 8.276961
8424 1377 3 0.417000 56.211641 24.243551 9.232485
8425 1377 3 0.417000 56.223772 25.124658 8.001470
8426 1378 2 -0.834000 62.080949 18.586055 8.165796
8427 1378 3 0.417000 61.577169 17.921906 8.636268
8428 1378 3 0.417000 61.733162 19.419841 8.482147
8429 1379 2 -0.834000 44.749429 9.905856 11.806015
8430 1379 3 0.417000 44.406118 10.741701 11.490211
8431 1379 3 0.417000 44.273171 9.245326 11.302915
8432 1380 2 -0.834000 134.039344 7.106717 11.773908
8433 1380 3 0.417000 134.888258 6.705942 11.586944
8434 1380 3 0.417000 133.478224 6.829141 11.049804
8435 1381 2 -0.834000 10.184050 32.843074 8.245360
8436 1381 3 0.417000 10.841827 32.821958 8.940425
8437 1381 3 0.417000 9.393724 32.487739 8.651997
8438 1382 2 -0.834000 85.165158 18.605947 8.336091
8439 1382 3 0.417000 85.556368 19.064552 7.592540
8440 1382 3 0.417000 84.457167 19.180697 8.627028
8441 1383 2 -0.834000 145.751146 32.879842 8.319661
8442 1383 3 0.417000 146.657298 32.900466 8.627389
8443 1383 3 0.417000 145.386467 33.722371 8.590558
8444 1384 2 -0.834000 10.065625 27.043537 11.752475
8445 1384 3 0.417000 9.413599 27.401366 12.355014
8446 1384 3 0.417000 10.135634 27.698543 11.058000
8447 1385 2 -0.834000 39.038551 24.242913 8.254761
8448 1385 3 0.417000 39.571163 24.993729 8.517118
8449 1385 3 0.417000 39.579162 23.776136 7.617508
8450 1386 2 -0.834000 148.625300 1.496910 8.322485
8451 1386 3 0.417000 148.318166 2.364827 8.060531
8452 1386 3 0.417000 148.195216 1.333373 9.161839
8453 1387 2 -0.834000 13.041920 24.303634 8.156494
8454 1387 3 0.417000 12.956620 24.720454 9.013942
8455 1387 3 0.417000 13.829658 23.764698 8.228940
8456 1388 2 -0.834000 30.211468 4.302974 11.710284
8457 1388 3 0.417000 31.008551 4.829755 11.768523
8458 1388 3 0.417000 29.881501 4.266920 12.608089
8459 1389 2 -0.834000 62.025001 24.296212 11.779313
8460 1389 3 0.417000 61.461515 24.582798 11.060576
8461 1389 3 0.417000 62.146266 25.079382 12.316129
8462 1390 2 -0.834000 56.335304 35.787777 11.661929
8463 1390 3 0.417000 55.963776 35.062551 12.164170
8464 1390 3 0.417000 55.792113 36.541760 11.891463
8465 1391 2 -0.834000 10.078886 12.862323 8.335769
8466 1391 3 0.417000 10.798590 12.239551 8.437817
8467 1391 3 0.417000 9.939712 13.214406 9.214916
8468 1392 2 -0.834000 119.685555 32.785064 8.223716
8469 1392 3 0.417000 119.866126 33.472338 8.865027
8470 1392 3 0.417000 120.016099 31.984222 8.630688
8471 1393 2 -0.834000 67.739144 21.439493 11.751173
8472 1393 3 0.417000 67.290375 21.649245 10.932123
8473 1393 3 0.417000 67.733923 20.483078 11.789571
8474 1394 2 -0.834000 64.967926 29.959749 8.295963
8475 1394 3 0.417000 64.764905 30.352461 7.446968
8476 1394 3 0.417000 65.780665 30.385326 8.569041
8477 1395 2 -0.834000 30.355890 35.665807 8.256484
8478 1395 3 0.417000 29.937043 35.552260 9.109658
8479 1395 3 0.417000 30.137643 36.561610 7.999313
8480 1396 2 -0.834000 4.304524 1.463515 8.253478
8481 1396 3 0.417000 3.829800 1.515411 9.083042
8482 1396 3 0.417000 3.946430 2.178186 7.726937
8483 1397 2 -0.834000 50.575915 7.230490 11.720319
8484 1397 3 0.417000 51.055061 7.063694 12.532002
8485 1397 3 0.417000 51.226023 7.615522 11.132663
8486 1398 2 -0.834000 21.602473 1.406431 8.299572
8487 1398 3 0.417000 22.515326 1.577005 8.531598
8488 1398 3 0.417000 21.646368 1.005812 7.431350
8489 1399 2 -0.834000 38.977019 15.725483 8.189247
8490 1399 3 0.417000 38.939330 16.549657 8.674579
8491 1399 3 0.417000 39.912373 15.551731 8.083627
8492 1400 2 -0.834000 21.580062 35.720938 8.286714
8493 1400 3 0.417000 22.098651 35.042212 8.718719
8494 1400 3 0.417000 20.843699 35.249114 7.897633
8495 1401 2 -0.834000 111.152036 15.665009 11.686047
8496 1401 3 0.417000 111.133375 16.401338 12.297360
8497 1401 3 0.417000 112.043495 15.322352 11.750217
8498 1402 2 -0.834000 36.132133 15.788497 11.747132
8499 1402 3 0.417000 35.964619 15.946104 10.817976
8500 1402 3 0.417000 35.419335 16.239714 12.199408
8501 1403 2 -0.834000 93.817264 35.796900 8.313076
8502 1403 3 0.417000 93.120251 35.702126 8.962247
8503 1403 3 0.417000 93.911801 34.923410 7.933196
8504 1404 2 -0.834000 142.797466 35.707596 8.326312
8505 1404 3 0.417000 142.670649 34.759163 8.351283
8506 1404 3 0.417000 143.745758 35.824517 8.383794
8507 0 4 1.000000 116.903418 12.833756 8.320540
8508 0 5 -1.000000 111.130179 1.477733 8.154748
8509 0 4 1.000000 119.691766 7.194475 11.799612
8510 0 5 -1.000000 73.655098 12.822118 8.248686
8511 0 4 1.000000 139.835918 15.715925 8.169972
8512 0 5 -1.000000 87.940700 30.023360 8.215940
8513 0 4 1.000000 41.889281 29.942809 11.703146
8514 0 5 -1.000000 105.271338 21.360954 8.278021
8515 0 4 1.000000 76.504658 38.521207 8.336675
8516 0 5 -1.000000 10.118404 9.975789 11.789075
8517 0 4 1.000000 7.215090 1.439202 11.804208
8518 0 5 -1.000000 102.439511 21.495287 8.348551
8519 0 4 1.000000 7.259884 27.060671 11.811107
8520 0 5 -1.000000 79.361074 27.199445 8.334008
8521 0 4 1.000000 13.073481 4.349266 11.829074
8522 0 5 -1.000000 30.344384 7.144165 11.744961
8523 0 4 1.000000 148.526805 27.147495 8.167804
8524 0 5 -1.000000 67.777773 12.817496 8.185557
8525 0 4 1.000000 38.903375 1.443170 8.275650
8526 0 5 -1.000000 53.385327 15.644213 8.327047
8527 0 4 1.000000 90.918102 21.343322 8.271271
8528 0 5 -1.000000 56.221651 15.661272 11.733951
8529 0 4 1.000000 79.283587 24.205673 8.213594
8530 0 5 -1.000000 15.825661 7.205118 8.306081
8531 0 4 1.000000 7.122858 38.576196 11.795576
8532 0 5 -1.000000 44.730569 1.497103 8.229064
8533 0 4 1.000000 122.652063 21.411287 8.239188
8534 0 5 -1.000000 67.821262 4.354672 8.301609
8535 0 4 1.000000 96.686295 15.775362 8.203476
8536 0 5 -1.000000 128.404863 35.631658 8.279927
8537 0 4 1.000000 59.226829 10.011533 11.819368
8538 0 5 -1.000000 47.671904 1.341699 11.705029
8539 0 4 1.000000 131.324353 24.347687 8.269095
8540 0 5 -1.000000 33.134539 35.739770 8.159969
8541 0 4 1.000000 105.286470 32.805067 11.790146
8542 0 5 -1.000000 116.769463 12.803055 11.775933
8543 0 4 1.000000 59.221713 15.756837 8.183378
8544 0 5 -1.000000 96.645509 24.305947 8.336573
8545 0 4 1.000000 128.451313 35.650874 11.823533
8546 0 5 -1.000000 41.900553 35.721729 11.732636
8547 0 4 1.000000 137.058861 7.093161 8.287223
8548 0 5 -1.000000 108.127303 24.366849 8.216504
8549 0 4 1.000000 27.337023 27.179331 8.259787
8550 0 5 -1.000000 87.906029 32.826827 8.343847

Bonds

1 1 4295 4296
2 1 4295 4297
3 1 4298 4299
4 1 4298 4300
5 1 4301 4302
6 1 4301 4303
7 1 4304 4305
8 1 4304 4306
9 1 4307 4308
10 1 4307 4309
11 1 4310 4311
12 1 4310 4312
13 1 4313 4314
14 1 4313 4315
15 1 4316 4317
16 1 4316 4318
17 1 4319 4320
18 1 4319 4321
19 1 4322 4323
20 1 4322 4324
21 1 4325 4326
22 1 4325 4327
23 1 4328 4329
24 1 4328 4330
25 1 4331 4332
26 1 4331 4333
27 1 4334 4335
28 1 4334 4336
29 1 4337 4338
30 1 4337 4339
31 1 4340 4341
32 1 4340 4342
33 1 4343 4344
34 1 4343 4345
35 1 4346 4347
36 1 4346 4348
37 1 4349 4350
38 1 4349 4351
39 1 4352 4353
40 1 4352 4354
41 1 4355 4356
42 1 4355 4357
43 1 4358 4359
44 1 4358 4360
45 1 4361 4362
46 1 4361 4363
47 1 4364 4365
48 1 4364 4366
49 1 4367 4368
50 1 4367 4369
51 1 4370 4371
52 1 4370 4372
53 1 4373 4374
54 1 4373 4375
55 1 4376 4377
56 1 4376 4378
57 1 4379 4380
58 1 4379 4381
59 1 4382 4383
60 1 4382 4384
61 1 4385 4386
62 1 4385 4387
63 1 4388 4389
64 1 4388 4390
65 1 4391 4392
66 1 4391 4393
67 1 4394 4395
68 1 4394 4396
69 1 4397 4398
70 1 4397 4399
71 1 4400 4401
72 1 4400 4402
73 1 4403 4404
74 1 4403 4405
75 1 4406 4407
76 1 4406 4408
77 1 4409 4410
78 1 4409 4411
79 1 4412 4413
80 1 4412 4414
81 1 4415 4416
82 1 4415 4417
83 1 4418 4419
84 1 4418 4420
85 1 4421 4422
86 1 4421 4423
87 1 4424 4425
88 1 4424 4426
89 1 4427 4428
90 1 4427 4429
91 1 4430 4431
92 1 4430 4432
93 1 4433 4434
94 1 4433 4435
95 1 4436 4437
96 1 4436 4438
97 1 4439 4440
98 1 4439 4441
99 1 4442 4443
100 1 4442 4444
101 1 4445 4446
102 1 4445 4447
103 1 4448 4449
104 1 4448 4450
105 1 4451 4452
106 1 4451 4453
107 1 4454 4455
108 1 4454 4456
109 1 4457 4458
110 1 4457 4459
111 1 4460 4461
112 1 4460 4462
113 1 4463 4464
114 1 4463 4465
115 1 4466 4467
116 1 4466 4468
117 1 4469 4470
118 1 4469 4471
119 1 4472 4473
120 1 4472 4474
121 1 4475 4476
122 1 4475 4477
123 1 4478 4479
124 1 4478 4480
125 1 4481 4482
126 1 4481 4483
127 1 4484 4485
128 1 4484 4486
129 1 4487 4488
130 1 4487 4489
131 1 4490 4491
132 1 4490 4492
133 1 4493 4494
134 1 4493 4495
135 1 4496 4497
136 1 4496 4498
137 1 4499 4500
138 1 4499 4501
139 1 4502 4503
140 1 4502 4504
141 1 4505 4506
142 1 4505 4507
143 1 4508 4509
144 1 4508 4510
145 1 4511 4512
146 1 4511 4513
147 1 4514 4515
148 1 4514 4516
149 1 4517 4518
150 1 4517 4519
151 1 4520 4521
152 1 4520 4522
153 1 4523 4524
154 1 4523 4525
155 1 4526 4527
156 1 4526 4528
157 1 4529 4530
158 1 4529 4531
159 1 4532 4533
160 1 4532 4534
161 1 4535 4536
162 1 4535 4537
163 1 4538 4539
164 1 4538 4540
165 1 4541 4542
166 1 4541 4543
167 1 4544 4545
168 1 4544 4546
169 1 4547 4548
170 1 4547 4549
171 1 4550 4551
172 1 4550 4552
173 1 4553 4554
174 1 4553 4555
175 1 4556 4557
176 1 4556 4558
177 1 4559 4560
178 1 4559 4561
179 1 4562 4563
180 1 4562 4564
181 1 4565 4566
182 1 4565 4567
183 1 4568 4569
184 1 4568 4570
185 1 4571 4572
186 1 4571 4573
187 1 4574 4575
188 1 4574 4576
189 1 4577 4578
190 1 4577 4579
191 1 4580 4581
192 1 4580 4582
193 1 4583 4584
194 1 4583 4585
195 1 4586 4587
196 1 4586 4588
197 1 4589 4590
198 1 4589 4591
199 1 4592 4593
200 1 4592 4594
201 1 4595 4596
202 1 4595 4597
203 1 4598 4599
204 1 4598 4600
205 1 4601 4602
206 1 4601 4603
207 1 4604 4605
208 1 4604 4606
209 1 4607 4608
210 1 4607 4609
211 1 4610 4611
212 1 4610 4612
213 1 4613 4614
214 1 4613 4615
215 1 4616 4617
216 1 4616 4618
217 1 4619 4620
218 1 4619 4621
219 1 4622 4623
220 1 4622 4624
221 1 4625 4626
222 1 4625 4627
223 1 4628 4629
224 1 4628 4630
225 1 4631 4632
226 1 4631 4633
227 1 4634 4635
228 1 4634 4636
229 1 4637 4638
230 1 4637 4639
231 1 4640 4641
232 1 4640 4642
233 1 4643 4644
234 1 4643 4645
235 1 4646 4647
236 1 4646 4648
237 1 4649 4650
238 1 4649 4651
239 1 4652 4653
240 1 4652 4654
241 1 4655 4656
242 1 4655 4657
243 1 4658 4659
244 1 4658 4660
245 1 4661 4662
246 1 4661 4663
247 1 4664 4665
248 1 4664 4666
249 1 4667 4668
250 1 4667 4669
251 1 4670 4671
252 1 4670 4672
253 1 4673 4674
254 1 4673 4675
255 1 4676 4677
256 1 4676 4678
257 1 4679 4680
258 1 4679 4681
259 1 4682 4683
260 1 4682 4684
261 1 4685 4686
262 1 4685 4687
263 1 4688 4689
264 1 4688 4690
265 1 4691 4692
266 1 4691 4693
267 1 4694 4695
268 1 4694 4696
269 1 4697 4698
270 1 4697 4699
271 1 4700 4701
272 1 4700 4702
273 1 4703 4704
274 1 4703 4705
275 1 4706 4707
276 1 4706 4708
277 1 4709 4710
278 1 4709 4711
279 1 4712 4713
280 1 4712 4714
281 1 4715 4716
282 1 4715 4717
283 1 4718 4719
284 1 4718 4720
285 1 4721 4722
286 1 4721 4723
287 1 4724 4725
288 1 4724 4726
289 1 4727 4728
290 1 4727 4729
291 1 4730 4731
292 1 4730 4732
293 1 4733 4734
294 1 4733 4735
295 1 4736 4737
296 1 4736 4738
297 1 4739 4740
298 1 4739 4741
299 1 4742 4743
300 1 4742 4744
301 1 4745 4746
302 1 4745 4747
303 1 4748 4749
304 1 4748 4750
305 1 4751 4752
306 1 4751 4753
307 1 4754 4755
308 1 4754 4756
309 1 4757 4758
310 1 4757 4759
311 1 4760 4761
312 1 4760 4762
313 1 4763 4764
314 1 4763 4765
315 1 4766 4767
316 1 4766 4768
317 1 4769 4770
318 1 4769 4771
319 1 4772 4773
320 1 4772 4774
321 1 4775 4776
322 1 4775 4777
323 1 4778 4779
324 1 4778 4780
325 1 4781 4782
326 1 4781 4783
327 1 4784 4785
328 1 4784 4786
329 1 4787 4788
330 1 4787 4789
331 1 4790 4791
332 1 4790 4792
333 1 4793 4794
334 1 4793 4795
335 1 4796 4797
336 1 4796 4798
337 1 4799 4800
338 1 4799 4801
339 1 4802 4803
340 1 4802 4804
341 1 4805 4806
342 1 4805 4807
343 1 4808 4809
344 1 4808 4810
345 1 4811 4812
346 1 4811 4813
347 1 4814 4815
348 1 4814 4816
349 1 4817 4818
350 1 4817 4819
351 1 4820 4821
352 1 4820 4822
353 1 4823 4824
354 1 4823 4825
355 1 4826 4827
356 1 4826 4828
357 1 4829 4830
358 1 4829 4831
359 1 4832 4833
360 1 4832 4834
361 1 4835 4836
362 1 4835 4837
363 1 4838 4839
364 1 4838 4840
365 1 4841 4842
366 1 4841 4843
367 1 4844 4845
368 1 4844 4846
369 1 4847 4848
370 1 4847 4849
371 1 4850 4851
372 1 4850 4852
373 1 4853 4854
374 1 4853 4855
375 1 4856 4857
376 1 4856 4858
377 1 4859 4860
378 1 4859 4861
379 1 4862 4863
380 1 4862 4864
381 1 4865 4866
382 1 4865 4867
383 1 4868 4869
384 1 4868 4870
385 1 4871 4872
386 1 4871 4873
387 1 4874 4875
388 1 4874 4876
389 1 4877 4878
390 1 4877 4879
391 1 4880 4881
392 1 4880 4882
393 1 4883 4884
394 1 4883 4885
395 1 4886 4887
396 1 4886 4888
397 1 4889 4890
398 1 4889 4891
399 1 4892 4893
400 1 4892 4894
401 1 4895 4896
402 1 4895 4897
403 1 4898 4899
404 1 4898 4900
405 1 4901 4902
406 1 4901 4903
407 1 4904 4905
408 1 4904 4906
409 1 4907 4908
410 1 4907 4909
411 1 4910 4911
412 1 4910 4912
413 1 4913 4914
414 1 4913 4915
415 1 4916 4917
416 1 4916 4918
417 1 4919 4920
418 1 4919 4921
419 1 4922 4923
420 1 4922 4924
421 1 4925 4926
422 1 4925 4927
423 1 4928 4929
424 1 4928 4930
425 1 4931 4932
426 1 4931 4933
427 1 4934 4935
428 1 4934 4936
429 1 4937 4938
430 1 4937 4939
431 1 4940 4941
432 1 4940 4942
433 1 4943 4944
434 1 4943 4945
435 1 4946 4947
436 1 4946 4948
437 1 4949 4950
438 1 4949 4951
439 1 4952 4953
440 1 4952 4954
441 1 4955 4956
442 1 4955 4957
443 1 4958 4959
444 1 4958 4960
445 1 4961 4962
446 1 4961 4963
447 1 4964 4965
448 1 4964 4966
449 1 4967 4968
450 1 4967 4969
451 1 4970 4971
452 1 4970 4972
453 1 4973 4974
454 1 4973 4975
455 1 4976 4977
456 1 4976 4978
457 1 4979 4980
458 1 4979 4981
459 1 4982 4983
460 1 4982 4984
461 1 4985 4986
462 1 4985 4987
463 1 4988 4989
464 1 4988 4990
465 1 4991 4992
466 1 4991 4993
467 1 4994 4995
468 1 4994 4996
469 1 4997 4998
470 1 4997 4999
471 1 5000 5001
472 1 5000 5002
473 1 5003 5004
474 1 5003 5005
475 1 5006 5007
476 1 5006 5008
477 1 5009 5010
478 1 5009 5011
479 1 5012 5013
480 1 5012 5014
481 1 5015 5016
482 1 5015 5017
483 1 5018 5019
484 1 5018 5020
485 1 5021 5022
486 1 5021 5023
487 1 5024 5025
488 1 5024 5026
489 1 5027 5028
490 1 5027 5029
491 1 5030 5031
492 1 5030 5032
493 1 5033 5034
494 1 5033 5035
495 1 5036 5037
496 1 5036 5038
497 1 5039 5040
498 1 5039 5041
499 1 5042 5043
500 1 5042 5044
501 1 5045 5046
502 1 5045 5047
503 1 5048 5049
504 1 5048 5050
505 1 5051 5052
506 1 5051 5053
507 1 5054 5055
508 1 5054 5056
509 1 5057 5058
510 1 5057 5059
511 1 5060 5061
512 1 5060 5062
513 1 5063 5064
514 1 5063 5065
515 1 5066 5067
516 1 5066 5068
517 1 5069 5070
518 1 5069 5071
519 1 5072 5073
520 1 5072 5074
521 1 5075 5076
522 1 5075 5077
523 1 5078 5079
524 1 5078 5080
525 1 5081 5082
526 1 5081 5083
527 1 5084 5085
528 1 5084 5086
529 1 5087 5088
530 1 5087 5089
531 1 5090 5091
532 1 5090 5092
533 1 5093 5094
534 1 5093 5095
535 1 5096 5097
536 1 5096 5098
537 1 5099 5100
538 1 5099 5101
539 1 5102 5103
540 1 5102 5104
541 1 5105 5106
542 1 5105 5107
543 1 5108 5109
544 1 5108 5110
545 1 5111 5112
546 1 5111 5113
547 1 5114 5115
548 1 5114 5116
549 1 5117 5118
550 1 5117 5119
551 1 5120 5121
552 1 5120 5122
553 1 5123 5124
554 1 5123 5125
555 1 5126 5127
556 1 5126 5128
557 1 5129 5130
558 1 5129 5131
559 1 5132 5133
560 1 5132 5134
561 1 5135 5136
562 1 5135 5137
563 1 5138 5139
564 1 5138 5140
565 1 5141 5142
566 1 5141 5143
567 1 5144 5145
568 1 5144 5146
569 1 5147 5148
570 1 5147 5149
571 1 5150 5151
572 1 5150 5152
573 1 5153 5154
574 1 5153 5155
575 1 5156 5157
576 1 5156 5158
577 1 5159 5160
578 1 5159 5161
579 1 5162 5163
580 1 5162 5164
581 1 5165 5166
582 1 5165 5167
583 1 5168 5169
584 1 5168 5170
585 1 5171 5172
586 1 5171 5173
587 1 5174 5175
588 1 5174 5176
589 1 5177 5178
590 1 5177 5179
591 1 5180 5181
592 1 5180 5182
593 1 5183 5184
594 1 5183 5185
595 1 5186 5187
596 1 5186 5188
597 1 5189 5190
598 1 5189 5191
599 1 5192 5193
600 1 5192 5194
601 1 5195 5196
602 1 5195 5197
603 1 5198 5199
604 1 5198 5200
605 1 5201 5202
606 1 5201 5203
607 1 5204 5205
608 1 5204 5206
609 1 5207 5208
610 1 5207 5209
611 1 5210 5211
612 1 5210 5212
613 1 5213 5214
614 1 5213 5215
615 1 5216 5217
616 1 5216 5218
617 1 5219 5220
618 1 5219 5221
619 1 5222 5223
620 1 5222 5224
621 1 5225 5226
622 1 5225 5227
623 1 5228 5229
624 1 5228 5230
625 1 5231 5232
626 1 5231 5233
627 1 5234 5235
628 1 5234 5236
629 1 5237 5238
630 1 5237 5239
631 1 5240 5241
632 1 5240 5242
633 1 5243 5244
634 1 5243 5245
635 1 5246 5247
636 1 5246 5248
637 1 5249 5250
638 1 5249 5251
639 1 5252 5253
640 1 5252 5254
641 1 5255 5256
642 1 5255 5257
643 1 5258 5259
644 1 5258 5260
645 1 5261 5262
646 1 5261 5263
647 1 5264 5265
648 1 5264 5266
649 1 5267 5268
650 1 5267 5269
651 1 5270 5271
652 1 5270 5272
653 1 5273 5274
654 1 5273 5275
655 1 5276 5277
656 1 5276 5278
657 1 5279 5280
658 1 5279 5281
659 1 5282 5283
660 1 5282 5284
661 1 5285 5286
662 1 5285 5287
663 1 5288 5289
664 1 5288 5290
665 1 5291 5292
666 1 5291 5293
667 1 5294 5295
668 1 5294 5296
669 1 5297 5298
670 1 5297 5299
671 1 5300 5301
672 1 5300 5302
673 1 5303 5304
674 1 5303 5305
675 1 5306 5307
676 1 5306 5308
677 1 5309 5310
678 1 5309 5311
679 1 5312 5313
680 1 5312 5314
681 1 5315 5316
682 1 5315 5317
683 1 5318 5319
684 1 5318 5320
685 1 5321 5322
686 1 5321 5323
687 1 5324 5325
688 1 5324 5326
689 1 5327 5328
690 1 5327 5329
691 1 5330 5331
692 1 5330 5332
693 1 5333 5334
694 1 5333 5335
695 1 5336 5337
696 1 5336 5338
697 1 5339 5340
698 1 5339 5341
699 1 5342 5343
700 1 5342 5344
701 1 5345 5346
702 1 5345 5347
703 1 5348 5349
704 1 5348 5350
705 1 5351 5352
706 1 5351 5353
707 1 5354 5355
708 1 5354 5356
709 1 5357 5358
710 1 5357 5359
711 1 5360 5361
712 1 5360 5362
713 1 5363 5364
714 1 5363 5365
715 1 5366 5367
716 1 5366 5368
717 1 5369 5370
718 1 5369 5371
719 1 5372 5373
720 1 5372 5374
721 1 5375 5376
722 1 5375 5377
723 1 5378 5379
724 1 5378 5380
725 1 5381 5382
726 1 5381 5383
727 1 5384 5385
728 1 5384 5386
729 1 5387 5388
730 1 5387 5389
731 1 5390 5391
732 1 5390 5392
733 1 5393 5394
734 1 5393 5395
735 1 5396 5397
736 1 5396 5398
737 1 5399 5400
738 1 5399 5401
739 1 5402 5403
740 1 5402 5404
741 1 5405 5406
742 1 5405 5407
743 1 5408 5409
744 1 5408 5410
745 1 5411 5412
746 1 5411 5413
747 1 5414 5415
748 1 5414 5416
749 1 5417 5418
750 1 5417 5419
751 1 5420 5421
752 1 5420 5422
753 1 5423 5424
754 1 5423 5425
755 1 5426 5427
756 1 5426 5428
757 1 5429 5430
758 1 5429 5431
759 1 5432 5433
760 1 5432 5434
761 1 5435 5436
762 1 5435 5437
763 1 5438 5439
764 1 5438 5440
765 1 5441 5442
766 1 5441 5443
767 1 5444 5445
768 1 5444 5446
769 1 5447 5448
770 1 5447 5449
771 1 5450 5451
772 1 5450 5452
773 1 5453 5454
774 1 5453 5455
775 1 5456 5457
776 1 5456 5458
777 1 5459 5460
778 1 5459 5461
779 1 5462 5463
780 1 5462 5464
781 1 5465 5466
782 1 5465 5467
783 1 5468 5469
784 1 5468 5470
785 1 5471 5472
786 1 5471 5473
787 1 5474 5475
788 1 5474 5476
789 1 5477 5478
790 1 5477 5479
791 1 5480 5481
792 1 5480 5482
793 1 5483 5484
794 1 5483 5485
795 1 5486 5487
796 1 5486 5488
797 1 5489 5490
798 1 5489 5491
799 1 5492 5493
800 1 5492 5494
801 1 5495 5496
802 1 5495 5497
803 1 5498 5499
804 1 5498 5500
805 1 5501 5502
806 1 5501 5503
807 1 5504 5505
808 1 5504 5506
809 1 5507 5508
810 1 5507 5509
811 1 5510 5511
812 1 5510 5512
813 1 5513 5514
814 1 5513 5515
815 1 5516 5517
816 1 5516 5518
817 1 5519 5520
818 1 5519 5521
819 1 5522 5523
820 1 5522 5524
821 1 5525 5526
822 1 5525 5527
823 1 5528 5529
824 1 5528 5530
825 1 5531 5532
826 1 5531 5533
827 1 5534 5535
828 1 5534 5536
829 1 5537 5538
830 1 5537 5539
831 1 5540 5541
832 1 5540 5542
833 1 5543 5544
834 1 5543 5545
835 1 5546 5547
836 1 5546 5548
837 1 5549 5550
838 1 5549 5551
839 1 5552 5553
840 1 5552 5554
841 1 5555 5556
842 1 5555 5557
843 1 5558 5559
844 1 5558 5560
845 1 5561 5562
846 1 5561 5563
847 1 5564 5565
848 1 5564 5566
849 1 5567 5568
850 1 5567 5569
851 1 5570 5571
852 1 5570 5572
853 1 5573 5574
854 1 5573 5575
855 1 5576 5577
856 1 5576 5578
857 1 5579 5580
858 1 5579 5581
859 1 5582 5583
860 1 5582 5584
861 1 5585 5586
862 1 5585 5587
863 1 5588 5589
864 1 5588 5590
865 1 5591 5592
866 1 5591 5593
867 1 5594 5595
868 1 5594 5596
869 1 5597 5598
870 1 5597 5599
871 1 5600 5601
872 1 5600 5602
873 1 5603 5604
874 1 5603 5605
875 1 5606 5607
876 1 5606 5608
877 1 5609 5610
878 1 5609 5611
879 1 5612 5613
880 1 5612 5614
881 1 5615 5616
882 1 5615 5617
883 1 5618 5619
884 1 5618 5620
885 1 5621 5622
886 1 5621 5623
887 1 5624 5625
888 1 5624 5626
889 1 5627 5628
890 1 5627 5629
891 1 5630 5631
892 1 5630 5632
893 1 5633 5634
894 1 5633 5635
895 1 5636 5637
896 1 5636 5638
897 1 5639 5640
898 1 5639 5641
899 1 5642 5643
900 1 5642 5644
901 1 5645 5646
902 1 5645 5647
903 1 5648 5649
904 1 5648 5650
905 1 5651 5652
906 1 5651 5653
907 1 5654 5655
908 1 5654 5656
909 1 5657 5658
910 1 5657 5659
911 1 5660 5661
912 1 5660 5662
913 1 5663 5664
914 1 5663 5665
915 1 5666 5667
916 1 5666 5668
917 1 5669 5670
918 1 5669 5671
919 1 5672 5673
920 1 5672 5674
921 1 5675 5676
922 1 5675 5677
923 1 5678 5679
924 1 5678 5680
925 1 5681 5682
926 1 5681 5683
927 1 5684 5685
928 1 5684 5686
929 1 5687 5688
930 1 5687 5689
931 1 5690 5691
932 1 5690 5692
933 1 5693 5694
934 1 5693 5695
935 1 5696 5697
936 1 5696 5698
937 1 5699 5700
938 1 5699 5701
939 1 5702 5703
940 1 5702 5704
941 1 5705 5706
942 1 5705 5707
943 1 5708 5709
944 1 5708 5710
945 1 5711 5712
946 1 5711 5713
947 1 5714 5715
948 1 5714 5716
949 1 5717 5718
950 1 5717 5719
951 1 5720 5721
952 1 5720 5722
953 1 5723 5724
954 1 5723 5725
955 1 5726 5727
956 1 5726 5728
957 1 5729 5730
958 1 5729 5731
959 1 5732 5733
960 1 5732 5734
961 1 5735 5736
962 1 5735 5737
963 1 5738 5739
964 1 5738 5740
965 1 5741 5742
966 1 5741 5743
967 1 5744 5745
968 1 5744 5746
969 1 5747 5748
970 1 5747 5749
971 1 5750 5751
972 1 5750 5752
973 1 5753 5754
974 1 5753 5755
975 1 5756 5757
976 1 5756 5758
977 1 5759 5760
978 1 5759 5761
979 1 5762 5763
980 1 5762 5764
981 1 5765 5766
982 1 5765 5767
983 1 5768 5769
984 1 5768 5770
985 1 5771 5772
986 1 5771 5773
987 1 5774 5775
988 1 5774 5776
989 1 5777 5778
990 1 5777 5779
991 1 5780 5781
992 1 5780 5782
993 1 5783 5784
994 1 5783 5785
995 1 5786 5787
996 1 5786 5788
997 1 5789 5790
998 1 5789 5791
999 1 5792 5793
1000 1 5792 5794
1001 1 5795 5796
1002 1 5795 5797
1003 1 5798 5799
1004 1 5798 5800
1005 1 5801 5802
1006 1 5801 5803
1007 1 5804 5805
1008 1 5804 5806
1009 1 5807 5808
1010 1 5807 5809
1011 1 5810 5811
1012 1 5810 5812
1013 1 5813 5814
1014 1 5813 5815
1015 1 5816 5817
1016 1 5816 5818
1017 1 5819 5820
1018 1 5819 5821
1019 1 5822 5823
1020 1 5822 5824
1021 1 5825 5826
1022 1 5825 5827
1023 1 5828 5829
1024 1 5828 5830
1025 1 5831 5832
1026 1 5831 5833
1027 1 5834 5835
1028 1 5834 5836
1029 1 5837 5838
1030 1 5837 5839
1031 1 5840 5841
1032 1 5840 5842
1033 1 5843 5844
1034 1 5843 5845
1035 1 5846 5847
1036 1 5846 5848
1037 1 5849 5850
1038 1 5849 5851
1039 1 5852 5853
1040 1 5852 5854
1041 1 5855 5856
1042 1 5855 5857
1043 1 5858 5859
1044 1 5858 5860
1045 1 5861 5862
1046 1 5861 5863
1047 1 5864 5865
1048 1 5864 5866
1049 1 5867 5868
1050 1 5867 5869
1051 1 5870 5871
1052 1 5870 5872
1053 1 5873 5874
1054 1 5873 5875
1055 1 5876 5877
1056 1 5876 5878
1057 1 5879 5880
1058 1 5879 5881
1059 1 5882 5883
1060 1 5882 5884
1061 1 5885 5886
1062 1 5885 5887
1063 1 5888 5889
1064 1 5888 5890
1065 1 5891 5892
1066 1 5891 5893
1067 1 5894 5895
1068 1 5894 5896
1069 1 5897 5898
1070 1 5897 5899
1071 1 5900 5901
1072 1 5900 5902
1073 1 5903 5904
1074 1 5903 5905
1075 1 5906 5907
1076 1 5906 5908
1077 1 5909 5910
1078 1 5909 5911
1079 1 5912 5913
1080 1 5912 5914
1081 1 5915 5916
1082 1 5915 5917
1083 1 5918 5919
1084 1 5918 5920
1085 1 5921 5922
1086 1 5921 5923
1087 1 5924 5925
1088 1 5924 5926
1089 1 5927 5928
1090 1 5927 5929
1091 1 5930 5931
1092 1 5930 5932
1093 1 5933 5934
1094 1 5933 5935
1095 1 5936 5937
1096 1 5936 5938
1097 1 5939 5940
1098 1 5939 5941
1099 1 5942 5943
1100 1 5942 5944
1101 1 5945 5946
1102 1 5945 5947
1103 1 5948 5949
1104 1 5948 5950
1105 1 5951 5952
1106 1 5951 5953
1107 1 5954 5955
1108 1 5954 5956
1109 1 5957 5958
1110 1 5957 5959
1111 1 5960 5961
1112 1 5960 5962
1113 1 5963 5964
1114 1 5963 5965
1115 1 5966 5967
1116 1 5966 5968
1117 1 5969 5970
1118 1 5969 5971
1119 1 5972 5973
1120 1 5972 5974
1121 1 5975 5976
1122 1 5975 5977
1123 1 5978 5979
1124 1 5978 5980
1125 1 5981 5982
1126 1 5981 5983
1127 1 5984 5985
1128 1 5984 5986
1129 1 5987 5988
1130 1 5987 5989
1131 1 5990 5991
1132 1 5990 5992
1133 1 5993 5994
1134 1 5993 5995
1135 1 5996 5997
1136 1 5996 5998
1137 1 5999 6000
1138 1 5999 6001
1139 1 6002 6003
1140 1 6002 6004
1141 1 6005 6006
1142 1 6005 6007
1143 1 6008 6009
1144 1 6008 6010
1145 1 6011 6012
1146 1 6011 6013
1147 1 6014 6015
1148 1 6014 6016
1149 1 6017 6018
1150 1 6017 6019
1151 1 6020 6021
1152 1 6020 6022
1153 1 6023 6024
1154 1 6023 6025
1155 1 6026 6027
1156 1 6026 6028
1157 1 6029 6030
1158 1 6029 6031
1159 1 6032 6033
1160 1 6032 6034
1161 1 6035 6036
1162 1 6035 6037
1163 1 6038 6039
1164 1 6038 6040
1165 1 6041 6042
1166 1 6041 6043
1167 1 6044 6045
1168 1 6044 6046
1169 1 6047 6048
1170 1 6047 6049
1171 1 6050 6051
1172 1 6050 6052
1173 1 6053 6054
1174 1 6053 6055
1175 1 6056 6057
1176 1 6056 6058
1177 1 6059 6060
1178 1 6059 6061
1179 1 6062 6063
1180 1 6062 6064
1181 1 6065 6066
1182 1 6065 6067
1183 1 6068 6069
1184 1 6068 6070
1185 1 6071 6072
1186 1 6071 6073
1187 1 6074 6075
1188 1 6074 6076
1189 1 6077 6078
1190 1 6077 6079
1191 1 6080 6081
1192 1 6080 6082
1193 1 6083 6084
1194 1 6083 6085
1195 1 6086 6087
1196 1 6086 6088
1197 1 6089 6090
1198 1 6089 6091
1199 1 6092 6093
1200 1 6092 6094
1201 1 6095 6096
1202 1 6095 6097
1203 1 6098 6099
1204 1 6098 6100
1205 1 6101 6102
1206 1 6101 6103
1207 1 6104 6105
1208 1 6104 6106
1209 1 6107 6108
1210 1 6107 6109
1211 1 6110 6111
1212 1 6110 6112
1213 1 6113 6114
1214 1 6113 6115
1215 1 6116 6117
1216 1 6116 6118
1217 1 6119 6120
1218 1 6119 6121
1219 1 6122 6123
1220 1 6122 6124
1221 1 6125 6126
1222 1 6125 6127
1223 1 6128 6129
1224 1 6128 6130
1225 1 6131 6132
1226 1 6131 6133
1227 1 6134 6135
1228 1 6134 6136
1229 1 6137 6138
1230 1 6137 6139
1231 1 6140 6141
1232 1 6140 6142
1233 1 6143 6144
1234 1 6143 6145
1235 1 6146 6147
1236 1 6146 6148
1237 1 6149 6150
1238 1 6149 6151
1239 1 6152 6153
1240 1 6152 6154
1241 1 6155 6156
1242 1 6155 6157
1243 1 6158 6159
1244 1 6158 6160
1245 1 6161 6162
1246 1 6161 6163
1247 1 6164 6165
1248 1 6164 6166
1249 1 6167 6168
1250 1 6167 6169
1251 1 6170 6171
1252 1 6170 6172
1253 1 6173 6174
1254 1 6173 6175
1255 1 6176 6177
1256 1 6176 6178
1257 1 6179 6180
1258 1 6179 6181
1259 1 6182 6183
1260 1 6182 6184
1261 1 6185 6186
1262 1 6185 6187
1263 1 6188 6189
1264 1 6188 6190
1265 1 6191 6192
1266 1 6191 6193
1267 1 6194 6195
1268 1 6194 6196
1269 1 6197 6198
1270 1 6197 6199
1271 1 6200 6201
1272 1 6200 6202
1273 1 6203 6204
1274 1 6203 6205
1275 1 6206 6207
1276 1 6206 6208
1277 1 6209 6210
1278 1 6209 6211
1279 1 6212 6213
1280 1 6212 6214
1281 1 6215 6216
1282 1 6215 6217
1283 1 6218 6219
1284 1 6218 6220
1285 1 6221 6222
1286 1 6221 6223
1287 1 6224 6225
1288 1 6224 6226
1289 1 6227 6228
1290 1 6227 6229
1291 1 6230 6231
1292 1 6230 6232
1293 1 6233 6234
1294 1 6233 6235
1295 1 6236 6237
1296 1 6236 6238
1297 1 6239 6240
1298 1 6239 6241
1299 1 6242 6243
1300 1 6242 6244
1301 1 6245 6246
1302 1 6245 6247
1303 1 6248 6249
1304 1 6248 6250
1305 1 6251 6252
1306 1 6251 6253
1307 1 6254 6255
1308 1 6254 6256
1309 1 6257 6258
1310 1 6257 6259
1311 1 6260 6261
1312 1 6260 6262
1313 1 6263 6264
1314 1 6263 6265
1315 1 6266 6267
1316 1 6266 6268
1317 1 6269 6270
1318 1 6269 6271
1319 1 6272 6273
1320 1 6272 6274
1321 1 6275 6276
1322 1 6275 6277
1323 1 6278 6279
1324 1 6278 6280
1325 1 6281 6282
1326 1 6281 6283
1327 1 6284 6285
1328 1 6284 6286
1329 1 6287 6288
1330 1 6287 6289
1331 1 6290 6291
1332 1 6290 6292
1333 1 6293 6294
1334 1 6293 6295
1335 1 6296 6297
1336 1 6296 6298
1337 1 6299 6300
1338 1 6299 6301
1339 1 6302 6303
1340 1 6302 6304
1341 1 6305 6306
1342 1 6305 6307
1343 1 6308 6309
1344 1 6308 6310
1345 1 6311 6312
1346 1 6311 6313
1347 1 6314 6315
1348 1 6314 6316
1349 1 6317 6318
1350 1 6317 6319
1351 1 6320 6321
1352 1 6320 6322
1353 1 6323 6324
1354 1 6323 6325
1355 1 6326 6327
1356 1 6326 6328
1357 1 6329 6330
1358 1 6329 6331
1359 1 6332 6333
1360 1 6332 6334
1361 1 6335 6336
1362 1 6335 6337
1363 1 6338 6339
1364 1 6338 6340
1365 1 6341 6342
1366 1 6341 6343
1367 1 6344 6345
1368 1 6344 6346
1369 1 6347 6348
1370 1 6347 6349
1371 1 6350 6351
1372 1 6350 6352
1373 1 6353 6354
1374 1 6353 6355
1375 1 6356 6357
1376 1 6356 6358
1377 1 6359 6360
1378 1 6359 6361
1379 1 6362 6363
1380 1 6362 6364
1381 1 6365 6366
1382 1 6365 6367
1383 1 6368 6369
1384 1 6368 6370
1385 1 6371 6372
1386 1 6371 6373
1387 1 6374 6375
1388 1 6374 6376
1389 1 6377 6378
1390 1 6377 6379
1391 1 6380 6381
1392 1 6380 6382
1393 1 6383 6384
1394 1 6383 6385
1395 1 6386 6387
1396 1 6386 6388
1397 1 6389 6390
1398 1 6389 6391
1399 1 6392 6393
1400 1 6392 6394
1401 1 6395 6396
1402 1 6395 6397
1403 1 6398 6399
1404 1 6398 6400
1405 1 6401 6402
1406 1 6401 6403
1407 1 6404 6405
1408 1 6404 6406
1409 1 6407 6408
1410 1 6407 6409
1411 1 6410 6411
1412 1 6410 6412
1413 1 6413 6414
1414 1 6413 6415
1415 1 6416 6417
1416 1 6416 6418
1417 1 6419 6420
1418 1 6419 6421
1419 1 6422 6423
1420 1 6422 6424
1421 1 6425 6426
1422 1 6425 6427
1423 1 6428 6429
1424 1 6428 6430
1425 1 6431 6432
1426 1 6431 6433
1427 1 6434 6435
1428 1 6434 6436
1429 1 6437 6438
1430 1 6437 6439
1431 1 6440 6441
1432 1 6440 6442
1433 1 6443 6444
1434 1 6443 6445
1435 1 6446 6447
1436 1 6446 6448
1437 1 6449 6450
1438 1 6449 6451
1439 1 6452 6453
1440 1 6452 6454
1441 1 6455 6456
1442 1 6455 6457
1443 1 6458 6459
1444 1 6458 6460
1445 1 6461 6462
1446 1 6461 6463
1447 1 6464 6465
1448 1 6464 6466
1449 1 6467 6468
1450 1 6467 6469
1451 1 6470 6471
1452 1 6470 6472
1453 1 6473 6474
1454 1 6473 6475
1455 1 6476 6477
1456 1 6476 6478
1457 1 6479 6480
1458 1 6479 6481
1459 1 6482 6483
1460 1 6482 6484
1461 1 6485 6486
1462 1 6485 6487
1463 1 6488 6489
1464 1 6488 6490
1465 1 6491 6492
1466 1 6491 6493
1467 1 6494 6495
1468 1 6494 6496
1469 1 6497 6498
1470 1 6497 6499
1471 1 6500 6501
1472 1 6500 6502
1473 1 6503 6504
1474 1 6503 6505
1475 1 6506 6507
1476 1 6506 6508
1477 1 6509 6510
1478 1 6509 6511
1479 1 6512 6513
1480 1 6512 6514
1481 1 6515 6516
1482 1 6515 6517
1483 1 6518 6519
1484 1 6518 6520
1485 1 6521 6522
1486 1 6521 6523
1487 1 6524 6525
1488 1 6524 6526
1489 1 6527 6528
1490 1 6527 6529
1491 1 6530 6531
1492 1 6530 6532
1493 1 6533 6534
1494 1 6533 6535
1495 1 6536 6537
1496 1 6536 6538
1497 1 6539 6540
1498 1 6539 6541
1499 1 6542 6543
1500 1 6542 6544
1501 1 6545 6546
1502 1 6545 6547
1503 1 6548 6549
1504 1 6548 6550
1505 1 6551 6552
1506 1 6551 6553
1507 1 6554 6555
1508 1 6554 6556
1509 1 6557 6558
1510 1 6557 6559
1511 1 6560 6561
1512 1 6560 6562
1513 1 6563 6564
1514 1 6563 6565
1515 1 6566 6567
1516 1 6566 6568
1517 1 6569 6570
1518 1 6569 6571
1519 1 6572 6573
1520 1 6572 6574
1521 1 6575 6576
1522 1 6575 6577
1523 1 6578 6579
1524 1 6578 6580
1525 1 6581 6582
1526 1 6581 6583
1527 1 6584 6585
1528 1 6584 6586
1529 1 6587 6588
1530 1 6587 6589
1531 1 6590 6591
1532 1 6590 6592
1533 1 6593 6594
1534 1 6593 6595
1535 1 6596 6597
1536 1 6596 6598
1537 1 6599 6600
1538 1 6599 6601
1539 1 6602 6603
1540 1 6602 6604
1541 1 6605 6606
1542 1 6605 6607
1543 1 6608 6609
1544 1 6608 6610
1545 1 6611 6612
1546 1 6611 6613
1547 1 6614 6615
1548 1 6614 6616
1549 1 6617 6618
1550 1 6617 6619
1551 1 6620 6621
1552 1 6620 6622
1553 1 6623 6624
1554 1 6623 6625
1555 1 6626 6627
1556 1 6626 6628
1557 1 6629 6630
1558 1 6629 6631
1559 1 6632 6633
1560 1 6632 6634
1561 1 6635 6636
1562 1 6635 6637
1563 1 6638 6639
1564 1 6638 6640
1565 1 6641 6642
1566 1 6641 6643
1567 1 6644 6645
1568 1 6644 6646
1569 1 6647 6648
1570 1 6647 6649
1571 1 6650 6651
1572 1 6650 6652
1573 1 6653 6654
1574 1 6653 6655
1575 1 6656 6657
1576 1 6656 6658
1577 1 6659 6660
1578 1 6659 6661
1579 1 6662 6663
1580 1 6662 6664
1581 1 6665 6666
1582 1 6665 6667
1583 1 6668 6669
1584 1 6668 6670
1585 1 6671 6672
1586 1 6671 6673
1587 1 6674 6675
1588 1 6674 6676
1589 1 6677 6678
1590 1 6677 6679
1591 1 6680 6681
1592 1 6680 6682
1593 1 6683 6684
1594 1 6683 6685
1595 1 6686 6687
1596 1 6686 6688
1597 1 6689 6690
1598 1 6689 6691
1599 1 6692 6693
1600 1 6692 6694
1601 1 6695 6696
1602 1 6695 6697
1603 1 6698 6699
1604 1 6698 6700
1605 1 6701 6702
1606 1 6701 6703
1607 1 6704 6705
1608 1 6704 6706
1609 1 6707 6708
1610 1 6707 6709
1611 1 6710 6711
1612 1 6710 6712
1613 1 6713 6714
1614 1 6713 6715
1615 1 6716 6717
1616 1 6716 6718
1617 1 6719 6720
1618 1 6719 6721
1619 1 6722 6723
1620 1 6722 6724
1621 1 6725 6726
1622 1 6725 6727
1623 1 6728 6729
1624 1 6728 6730
1625 1 6731 6732
1626 1 6731 6733
1627 1 6734 6735
1628 1 6734 6736
1629 1 6737 6738
1630 1 6737 6739
1631 1 6740 6741
1632 1 6740 6742
1633 1 6743 6744
1634 1 6743 6745
1635 1 6746 6747
1636 1 6746 6748
1637 1 6749 6750
1638 1 6749 6751
1639 1 6752 6753
1640 1 6752 6754
1641 1 6755 6756
1642 1 6755 6757
1643 1 6758 6759
1644 1 6758 6760
1645 1 6761 6762
1646 1 6761 6763
1647 1 6764 6765
1648 1 6764 6766
1649 1 6767 6768
1650 1 6767 6769
1651 1 6770 6771
1652 1 6770 6772
1653 1 6773 6774
1654 1 6773 6775
1655 1 6776 6777
1656 1 6776 6778
1657 1 6779 6780
1658 1 6779 6781
1659 1 6782 6783
1660 1 6782 6784
1661 1 6785 6786
1662 1 6785 6787
1663 1 6788 6789
1664 1 6788 6790
1665 1 6791 6792
1666 1 6791 6793
1667 1 6794 6795
1668 1 6794 6796
1669 1 6797 6798
1670 1 6797 6799
1671 1 6800 6801
1672 1 6800 6802
1673 1 6803 6804
1674 1 6803 6805
1675 1 6806 6807
1676 1 6806 6808
1677 1 6809 6810
1678 1 6809 6811
1679 1 6812 6813
1680 1 6812 6814
1681 1 6815 6816
1682 1 6815 6817
1683 1 6818 6819
1684 1 6818 6820
1685 1 6821 6822
1686 1 6821 6823
1687 1 6824 6825
1688 1 6824 6826
1689 1 6827 6828
1690 1 6827 6829
1691 1 6830 6831
1692 1 6830 6832
1693 1 6833 6834
1694 1 6833 6835
1695 1 6836 6837
1696 1 6836 6838
1697 1 6839 6840
1698 1 6839 6841
1699 1 6842 6843
1700 1 6842 6844
1701 1 6845 6846
1702 1 6845 6847
1703 1 6848 6849
1704 1 6848 6850
1705 1 6851 6852
1706 1 6851 6853
1707 1 6854 6855
1708 1 6854 6856
1709 1 6857 6858
1710 1 6857 6859
1711 1 6860 6861
1712 1 6860 6862
1713 1 6863 6864
1714 1 6863 6865
1715 1 6866 6867
1716 1 6866 6868
1717 1 6869 6870
1718 1 6869 6871
1719 1 6872 6873
1720 1 6872 6874
1721 1 6875 6876
1722 1 6875 6877
1723 1 6878 6879
1724 1 6878 6880
1725 1 6881 6882
1726 1 6881 6883
1727 1 6884 6885
1728 1 6884 6886
1729 1 6887 6888
1730 1 6887 6889
1731 1 6890 6891
1732 1 6890 6892
1733 1 6893 6894
1734 1 6893 6895
1735 1 6896 6897
1736 1 6896 6898
1737 1 6899 6900
1738 1 6899 6901
1739 1 6902 6903
1740 1 6902 6904
1741 1 6905 6906
1742 1 6905 6907
1743 1 6908 6909
1744 1 6908 6910
1745 1 6911 6912
1746 1 6911 6913
1747 1 6914 6915
1748 1 6914 6916
1749 1 6917 6918
1750 1 6917 6919
1751 1 6920 6921
1752 1 6920 6922
1753 1 6923 6924
1754 1 6923 6925
1755 1 6926 6927
1756 1 6926 6928
1757 1 6929 6930
1758 1 6929 6931
1759 1 6932 6933
1760 1 6932 6934
1761 1 6935 6936
1762 1 6935 6937
1763 1 6938 6939
1764 1 6938 6940
1765 1 6941 6942
1766 1 6941 6943
1767 1 6944 6945
1768 1 6944 6946
1769 1 6947 6948
1770 1 6947 6949
1771 1 6950 6951
1772 1 6950 6952
1773 1 6953 6954
1774 1 6953 6955
1775 1 6956 6957
1776 1 6956 6958
1777 1 6959 6960
1778 1 6959 6961
1779 1 6962 6963
1780 1 6962 6964
1781 1 6965 6966
1782 1 6965 6967
1783 1 6968 6969
1784 1 6968 6970
1785 1 6971 6972
1786 1 6971 6973
1787 1 6974 6975
1788 1 6974 6976
1789 1 6977 6978
1790 1 6977 6979
1791 1 6980 6981
1792 1 6980 6982
1793 1 6983 6984
1794 1 6983 6985
1795 1 6986 6987
1796 1 6986 6988
1797 1 6989 6990
1798 1 6989 6991
1799 1 6992 6993
1800 1 6992 6994
1801 1 6995 6996
1802 1 6995 6997
1803 1 6998 6999
1804 1 6998 7000
1805 1 7001 7002
1806 1 7001 7003
1807 1 7004 7005
1808 1 7004 7006
1809 1 7007 7008
1810 1 7007 7009
1811 1 7010 7011
1812 1 7010 7012
1813 1 7013 7014
1814 1 7013 7015
1815 1 7016 7017
1816 1 7016 7018
1817 1 7019 7020
1818 1 7019 7021
1819 1 7022 7023
1820 1 7022 7024
1821 1 7025 7026
1822 1 7025 7027
1823 1 7028 7029
1824 1 7028 7030
1825 1 7031 7032
1826 1 7031 7033
1827 1 7034 7035
1828 1 7034 7036
1829 1 7037 7038
1830 1 7037 7039
1831 1 7040 7041
1832 1 7040 7042
1833 1 7043 7044
1834 1 7043 7045
1835 1 7046 7047
1836 1 7046 7048
1837 1 7049 7050
1838 1 7049 7051
1839 1 7052 7053
1840 1 7052 7054
1841 1 7055 7056
1842 1 7055 7057
1843 1 7058 7059
1844 1 7058 7060
1845 1 7061 7062
1846 1 7061 7063
1847 1 7064 7065
1848 1 7064 7066
1849 1 7067 7068
1850 1 7067 7069
1851 1 7070 7071
1852 1 7070 7072
1853 1 7073 7074
1854 1 7073 7075
1855 1 7076 7077
1856 1 7076 7078
1857 1 7079 7080
1858 1 7079 7081
1859 1 7082 7083
1860 1 7082 7084
1861 1 7085 7086
1862 1 7085 7087
1863 1 7088 7089
1864 1 7088 7090
1865 1 7091 7092
1866 1 7091 7093
1867 1 7094 7095
1868 1 7094 7096
1869 1 7097 7098
1870 1 7097 7099
1871 1 7100 7101
1872 1 7100 7102
1873 1 7103 7104
1874 1 7103 7105
1875 1 7106 7107
1876 1 7106 7108
1877 1 7109 7110
1878 1 7109 7111
1879 1 7112 7113
1880 1 7112 7114
1881 1 7115 7116
1882 1 7115 7117
1883 1 7118 7119
1884 1 7118 7120
1885 1 7121 7122
1886 1 7121 7123
1887 1 7124 7125
1888 1 7124 7126
1889 1 7127 7128
1890 1 7127 7129
1891 1 7130 7131
1892 1 7130 7132
1893 1 7133 7134
1894 1 7133 7135
1895 1 7136 7137
1896 1 7136 7138
1897 1 7139 7140
1898 1 7139 7141
1899 1 7142 7143
1900 1 7142 7144
1901 1 7145 7146
1902 1 7145 7147
1903 1 7148 7149
1904 1 7148 7150
1905 1 7151 7152
1906 1 7151 7153
1907 1 7154 7155
1908 1 7154 7156
1909 1 7157 7158
1910 1 7157 7159
1911 1 7160 7161
1912 1 7160 7162
1913 1 7163 7164
1914 1 7163 7165
1915 1 7166 7167
1916 1 7166 7168
1917 1 7169 7170
1918 1 7169 7171
1919 1 7172 7173
1920 1 7172 7174
1921 1 7175 7176
1922 1 7175 7177
1923 1 7178 7179
1924 1 7178 7180
1925 1 7181 7182
1926 1 7181 7183
1927 1 7184 7185
1928 1 7184 7186
1929 1 7187 7188
1930 1 7187 7189
1931 1 7190 7191
1932 1 7190 7192
1933 1 7193 7194
1934 1 7193 7195
1935 1 7196 7197
1936 1 7196 7198
1937 1 7199 7200
1938 1 7199 7201
1939 1 7202 7203
1940 1 7202 7204
1941 1 7205 7206
1942 1 7205 7207
1943 1 7208 7209
1944 1 7208 7210
1945 1 7211 7212
1946 1 7211 7213
1947 1 7214 7215
1948 1 7214 7216
1949 1 7217 7218
1950 1 7217 7219
1951 1 7220 7221
1952 1 7220 7222
1953 1 7223 7224
1954 1 7223 7225
1955 1 7226 7227
1956 1 7226 7228
1957 1 7229 7230
1958 1 7229 7231
1959 1 7232 7233
1960 1 7232 7234
1961 1 7235 7236
1962 1 7235 7237
1963 1 7238 7239
1964 1 7238 7240
1965 1 7241 7242
1966 1 7241 7243
1967 1 7244 7245
1968 1 7244 7246
1969 1 7247 7248
1970 1 7247 7249
1971 1 7250 7251
1972 1 7250 7252
1973 1 7253 7254
1974 1 7253 7255
1975 1 7256 7257
1976 1 7256 7258
1977 1 7259 7260
1978 1 7259 7261
1979 1 7262 7263
1980 1 7262 7264
1981 1 7265 7266
1982 1 7265 7267
1983 1 7268 7269
1984 1 7268 7270
1985 1 7271 7272
1986 1 7271 7273
1987 1 7274 7275
1988 1 7274 7276
1989 1 7277 7278
1990 1 7277 7279
1991 1 7280 7281
1992 1 7280 7282
1993 1 7283 7284
1994 1 7283 7285
1995 1 7286 7287
1996 1 7286 7288
1997 1 7289 7290
1998 1 7289 7291
1999 1 7292 7293
2000 1 7292 7294
2001 1 7295 7296
2002 1 7295 7297
2003 1 7298 7299
2004 1 7298 7300
2005 1 7301 7302
2006 1 7301 7303
2007 1 7304 7305
2008 1 7304 7306
2009 1 7307 7308
2010 1 7307 7309
2011 1 7310 7311
2012 1 7310 7312
2013 1 7313 7314
2014 1 7313 7315
2015 1 7316 7317
2016 1 7316 7318
2017 1 7319 7320
2018 1 7319 7321
2019 1 7322 7323
2020 1 7322 7324
2021 1 7325 7326
2022 1 7325 7327
2023 1 7328 7329
2024 1 7328 7330
2025 1 7331 7332
2026 1 7331 7333
2027 1 7334 7335
2028 1 7334 7336
2029 1 7337 7338
2030 1 7337 7339
2031 1 7340 7341
2032 1 7340 7342
2033 1 7343 7344
2034 1 7343 7345
2035 1 7346 7347
2036 1 7346 7348
2037 1 7349 7350
2038 1 7349 7351
2039 1 7352 7353
2040 1 7352 7354
2041 1 7355 7356
2042 1 7355 7357
2043 1 7358 7359
2044 1 7358 7360
2045 1 7361 7362
2046 1 7361 7363
2047 1 7364 7365
2048 1 7364 7366
2049 1 7367 7368
2050 1 7367 7369
2051 1 7370 7371
2052 1 7370 7372
2053 1 7373 7374
2054 1 7373 7375
2055 1 7376 7377
2056 1 7376 7378
2057 1 7379 7380
2058 1 7379 7381
2059 1 7382 7383
2060 1 7382 7384
2061 1 7385 7386
2062 1 7385 7387
2063 1 7388 7389
2064 1 7388 7390
2065 1 7391 7392
2066 1 7391 7393
2067 1 7394 7395
2068 1 7394 7396
2069 1 7397 7398
2070 1 7397 7399
2071 1 7400 7401
2072 1 7400 7402
2073 1 7403 7404
2074 1 7403 7405
2075 1 7406 7407
2076 1 7406 7408
2077 1 7409 7410
2078 1 7409 7411
2079 1 7412 7413
2080 1 7412 7414
2081 1 7415 7416
2082 1 7415 7417
2083 1 7418 7419
2084 1 7418 7420
2085 1 7421 7422
2086 1 7421 7423
2087 1 7424 7425
2088 1 7424 7426
2089 1 7427 7428
2090 1 7427 7429
2091 1 7430 7431
2092 1 7430 7432
2093 1 7433 7434
2094 1 7433 7435
2095 1 7436 7437
2096 1 7436 7438
2097 1 7439 7440
2098 1 7439 7441
2099 1 7442 7443
2100 1 7442 7444
2101 1 7445 7446
2102 1 7445 7447
2103 1 7448 7449
2104 1 7448 7450
2105 1 7451 7452
2106 1 7451 7453
2107 1 7454 7455
2108 1 7454 7456
2109 1 7457 7458
2110 1 7457 7459
2111 1 7460 7461
2112 1 7460 7462
2113 1 7463 7464
2114 1 7463 7465
2115 1 7466 7467
2116 1 7466 7468
2117 1 7469 7470
2118 1 7469 7471
2119 1 7472 7473
2120 1 7472 7474
2121 1 7475 7476
2122 1 7475 7477
2123 1 7478 7479
2124 1 7478 7480
2125 1 7481 7482
2126 1 7481 7483
2127 1 7484 7485
2128 1 7484 7486
2129 1 7487 7488
2130 1 7487 7489
2131 1 7490 7491
2132 1 7490 7492
2133 1 7493 7494
2134 1 7493 7495
2135 1 7496 7497
2136 1 7496 7498
2137 1 7499 7500
2138 1 7499 7501
2139 1 7502 7503
2140 1 7502 7504
2141 1 7505 7506
2142 1 7505 7507
2143 1 7508 7509
2144 1 7508 7510
2145 1 7511 7512
2146 1 7511 7513
2147 1 7514 7515
2148 1 7514 7516
2149 1 7517 7518
2150 1 7517 7519
2151 1 7520 7521
2152 1 7520 7522
2153 1 7523 7524
2154 1 7523 7525
2155 1 7526 7527
2156 1 7526 7528
2157 1 7529 7530
2158 1 7529 7531
2159 1 7532 7533
2160 1 7532 7534
2161 1 7535 7536
2162 1 7535 7537
2163 1 7538 7539
2164 1 7538 7540
2165 1 7541 7542
2166 1 7541 7543
2167 1 7544 7545
2168 1 7544 7546
2169 1 7547 7548
2170 1 7547 7549
2171 1 7550 7551
2172 1 7550 7552
2173 1 7553 7554
2174 1 7553 7555
2175 1 7556 7557
2176 1 7556 7558
2177 1 7559 7560
2178 1 7559 7561
2179 1 7562 7563
2180 1 7562 7564
2181 1 7565 7566
2182 1 7565 7567
2183 1 7568 7569
2184 1 7568 7570
2185 1 7571 7572
2186 1 7571 7573
2187 1 7574 7575
2188 1 7574 7576
2189 1 7577 7578
2190 1 7577 7579
2191 1 7580 7581
2192 1 7580 7582
2193 1 7583 7584
2194 1 7583 7585
2195 1 7586 7587
2196 1 7586 7588
2197 1 7589 7590
2198 1 7589 7591
2199 1 7592 7593
2200 1 7592 7594
2201 1 7595 7596
2202 1 7595 7597
2203 1 7598 7599
2204 1 7598 7600
2205 1 7601 7602
2206 1 7601 7603
2207 1 7604 7605
2208 1 7604 7606
2209 1 7607 7608
2210 1 7607 7609
2211 1 7610 7611
2212 1 7610 7612
2213 1 7613 7614
2214 1 7613 7615
2215 1 7616 7617
2216 1 7616 7618
2217 1 7619 7620
2218 1 7619 7621
2219 1 7622 7623
2220 1 7622 7624
2221 1 7625 7626
2222 1 7625 7627
2223 1 7628 7629
2224 1 7628 7630
2225 1 7631 7632
2226 1 7631 7633
2227 1 7634 7635
2228 1 7634 7636
2229 1 7637 7638
2230 1 7637 7639
2231 1 7640 7641
2232 1 7640 7642
2233 1 7643 7644
2234 1 7643 7645
2235 1 7646 7647
2236 1 7646 7648
2237 1 7649 7650
2238 1 7649 7651
2239 1 7652 7653
2240 1 7652 7654
2241 1 7655 7656
2242 1 7655 7657
2243 1 7658 7659
2244 1 7658 7660
2245 1 7661 7662
2246 1 7661 7663
2247 1 7664 7665
2248 1 7664 7666
2249 1 7667 7668
2250 1 7667 7669
2251 1 7670 7671
2252 1 7670 7672
2253 1 7673 7674
2254 1 7673 7675
2255 1 7676 7677
2256 1 7676 7678
2257 1 7679 7680
2258 1 7679 7681
2259 1 7682 7683
2260 1 7682 7684
2261 1 7685 7686
2262 1 7685 7687
2263 1 7688 7689
2264 1 7688 7690
2265 1 7691 7692
2266 1 7691 7693
2267 1 7694 7695
2268 1 7694 7696
2269 1 7697 7698
2270 1 7697 7699
2271 1 7700 7701
2272 1 7700 7702
2273 1 7703 7704
2274 1 7703 7705
2275 1 7706 7707
2276 1 7706 7708
2277 1 7709 7710
2278 1 7709 7711
2279 1 7712 7713
2280 1 7712 7714
2281 1 7715 7716
2282 1 7715 7717
2283 1 7718 7719
2284 1 7718 7720
2285 1 7721 7722
2286 1 7721 7723
2287 1 7724 7725
2288 1 7724 7726
2289 1 7727 7728
2290 1 7727 7729
2291 1 7730 7731
2292 1 7730 7732
2293 1 7733 7734
2294 1 7733 7735
2295 1 7736 7737
2296 1 7736 7738
2297 1 7739 7740
2298 1 7739 7741
2299 1 7742 7743
2300 1 7742 7744
2301 1 7745 7746
2302 1 7745 7747
2303 1 7748 7749
2304 1 7748 7750
2305 1 7751 7752
2306 1 7751 7753
2307 1 7754 7755
2308 1 7754 7756
2309 1 7757 7758
2310 1 7757 7759
2311 1 7760 7761
2312 1 7760 7762
2313 1 7763 7764
2314 1 7763 7765
2315 1 7766 7767
2316 1 7766 7768
2317 1 7769 7770
2318 1 7769 7771
2319 1 7772 7773
2320 1 7772 7774
2321 1 7775 7776
2322 1 7775 7777
2323 1 7778 7779
2324 1 7778 7780
2325 1 7781 7782
2326 1 7781 7783
2327 1 7784 7785
2328 1 7784 7786
2329 1 7787 7788
2330 1 7787 7789
2331 1 7790 7791
2332 1 7790 7792
2333 1 7793 7794
2334 1 7793 7795
2335 1 7796 7797
2336 1 7796 7798
2337 1 7799 7800
2338 1 7799 7801
2339 1 7802 7803
2340 1 7802 7804
2341 1 7805 7806
2342 1 7805 7807
2343 1 7808 7809
2344 1 7808 7810
2345 1 7811 7812
2346 1 7811 7813
2347 1 7814 7815
2348 1 7814 7816
2349 1 7817 7818
2350 1 7817 7819
2351 1 7820 7821
2352 1 7820 7822
2353 1 7823 7824
2354 1 7823 7825
2355 1 7826 7827
2356 1 7826 7828
2357 1 7829 7830
2358 1 7829 7831
2359 1 7832 7833
2360 1 7832 7834
2361 1 7835 7836
2362 1 7835 7837
2363 1 7838 7839
2364 1 7838 7840
2365 1 7841 7842
2366 1 7841 7843
2367 1 7844 7845
2368 1 7844 7846
2369 1 7847 7848
2370 1 7847 7849
2371 1 7850 7851
2372 1 7850 7852
2373 1 7853 7854
2374 1 7853 7855
2375 1 7856 7857
2376 1 7856 7858
2377 1 7859 7860
2378 1 7859 7861
2379 1 7862 7863
2380 1 7862 7864
2381 1 7865 7866
2382 1 7865 7867
2383 1 7868 7869
2384 1 7868 7870
2385 1 7871 7872
2386 1 7871 7873
2387 1 7874 7875
2388 1 7874 7876
2389 1 7877 7878
2390 1 7877 7879
2391 1 7880 7881
2392 1 7880 7882
2393 1 7883 7884
2394 1 7883 7885
2395 1 7886 7887
2396 1 7886 7888
2397 1 7889 7890
2398 1 7889 7891
2399 1 7892 7893
2400 1 7892 7894
2401 1 7895 7896
2402 1 7895 7897
2403 1 7898 7899
2404 1 7898 7900
2405 1 7901 7902
2406 1 7901 7903
2407 1 7904 7905
2408 1 7904 7906
2409 1 7907 7908
2410 1 7907 7909
2411 1 7910 7911
2412 1 7910 7912
2413 1 7913 7914
2414 1 7913 7915
2415 1 7916 7917
2416 1 7916 7918
2417 1 7919 7920
2418 1 7919 7921
2419 1 7922 7923
2420 1 7922 7924
2421 1 7925 7926
2422 1 7925 7927
2423 1 7928 7929
2424 1 7928 7930
2425 1 7931 7932
2426 1 7931 7933
2427 1 7934 7935
2428 1 7934 7936
2429 1 7937 7938
2430 1 7937 7939
2431 1 7940 7941
2432 1 7940 7942
2433 1 7943 7944
2434 1 7943 7945
2435 1 7946 7947
2436 1 7946 7948
2437 1 7949 7950
2438 1 7949 7951
2439 1 7952 7953
2440 1 7952 7954
2441 1 7955 7956
2442 1 7955 7957
2443 1 7958 7959
2444 1 7958 7960
2445 1 7961 7962
2446 1 7961 7963
2447 1 7964 7965
2448 1 7964 7966
2449 1 7967 7968
2450 1 7967 7969
2451 1 7970 7971
2452 1 7970 7972
2453 1 7973 7974
2454 1 7973 7975
2455 1 7976 7977
2456 1 7976 7978
2457 1 7979 7980
2458 1 7979 7981
2459 1 7982 7983
2460 1 7982 7984
2461 1 7985 7986
2462 1 7985 7987
2463 1 7988 7989
2464 1 7988 7990
2465 1 7991 7992
2466 1 7991 7993
2467 1 7994 7995
2468 1 7994 7996
2469 1 7997 7998
2470 1 7997 7999
2471 1 8000 8001
2472 1 8000 8002
2473 1 8003 8004
2474 1 8003 8005
2475 1 8006 8007
2476 1 8006 8008
2477 1 8009 8010
2478 1 8009 8011
2479 1 8012 8013
2480 1 8012 8014
2481 1 8015 8016
2482 1 8015 8017
2483 1 8018 8019
2484 1 8018 8020
2485 1 8021 8022
2486 1 8021 8023
2487 1 8024 8025
2488 1 8024 8026
2489 1 8027 8028
2490 1 8027 8029
2491 1 8030 8031
2492 1 8030 8032
2493 1 8033 8034
2494 1 8033 8035
2495 1 8036 8037
2496 1 8036 8038
2497 1 8039 8040
2498 1 8039 8041
2499 1 8042 8043
2500 1 8042 8044
2501 1 8045 8046
2502 1 8045 8047
2503 1 8048 8049
2504 1 8048 8050
2505 1 8051 8052
2506 1 8051 8053
2507 1 8054 8055
2508 1 8054 8056
2509 1 8057 8058
2510 1 8057 8059
2511 1 8060 8061
2512 1 8060 8062
2513 1 8063 8064
2514 1 8063 8065
2515 1 8066 8067
2516 1 8066 8068
2517 1 8069 8070
2518 1 8069 8071
2519 1 8072 8073
2520 1 8072 8074
2521 1 8075 8076
2522 1 8075 8077
2523 1 8078 8079
2524 1 8078 8080
2525 1 8081 8082
2526 1 8081 8083
2527 1 8084 8085
2528 1 8084 8086
2529 1 8087 8088
2530 1 8087 8089
2531 1 8090 8091
2532 1 8090 8092
2533 1 8093 8094
2534 1 8093 8095
2535 1 8096 8097
2536 1 8096 8098
2537 1 8099 8100
2538 1 8099 8101
2539 1 8102 8103
2540 1 8102 8104
2541 1 8105 8106
2542 1 8105 8107
2543 1 8108 8109
2544 1 8108 8110
2545 1 8111 8112
2546 1 8111 8113
2547 1 8114 8115
2548 1 8114 8116
2549 1 8117 8118
2550 1 8117 8119
2551 1 8120 8121
2552 1 8120 8122
2553 1 8123 8124
2554 1 8123 8125
2555 1 8126 8127
2556 1 8126 8128
2557 1 8129 8130
2558 1 8129 8131
2559 1 8132 8133
2560 1 8132 8134
2561 1 8135 8136
2562 1 8135 8137
2563 1 8138 8139
2564 1 8138 8140
2565 1 8141 8142
2566 1 8141 8143
2567 1 8144 8145
2568 1 8144 8146
2569 1 8147 8148
2570 1 8147 8149
2571 1 8150 8151
2572 1 8150 8152
2573 1 8153 8154
2574 1 8153 8155
2575 1 8156 8157
2576 1 8156 8158
2577 1 8159 8160
2578 1 8159 8161
2579 1 8162 8163
2580 1 8162 8164
2581 1 8165 8166
2582 1 8165 8167
2583 1 8168 8169
2584 1 8168 8170
2585 1 8171 8172
2586 1 8171 8173
2587 1 8174 8175
2588 1 8174 8176
2589 1 8177 8178
2590 1 8177 8179
2591 1 8180 8181
2592 1 8180 8182
2593 1 8183 8184
2594 1 8183 8185
2595 1 8186 8187
2596 1 8186 8188
2597 1 8189 8190
2598 1 8189 8191
2599 1 8192 8193
2600 1 8192 8194
2601 1 8195 8196
2602 1 8195 8197
2603 1 8198 8199
2604 1 8198 8200
2605 1 8201 8202
2606 1 8201 8203
2607 1 8204 8205
2608 1 8204 8206
2609 1 8207 8208
2610 1 8207 8209
2611 1 8210 8211
2612 1 8210 8212
2613 1 8213 8214
2614 1 8213 8215
2615 1 8216 8217
2616 1 8216 8218
2617 1 8219 8220
2618 1 8219 8221
2619 1 8222 8223
2620 1 8222 8224
2621 1 8225 8226
2622 1 8225 8227
2623 1 8228 8229
2624 1 8228 8230
2625 1 8231 8232
2626 1 8231 8233
2627 1 8234 8235
2628 1 8234 8236
2629 1 8237 8238
2630 1 8237 8239
2631 1 8240 8241
2632 1 8240 8242
2633 1 8243 8244
2634 1 8243 8245
2635 1 8246 8247
2636 1 8246 8248
2637 1 8249 8250
2638 1 8249 8251
2639 1 8252 8253
2640 1 8252 8254
2641 1 8255 8256
2642 1 8255 8257
2643 1 8258 8259
2644 1 8258 8260
2645 1 8261 8262
2646 1 8261 8263
2647 1 8264 8265
2648 1 8264 8266
2649 1 8267 8268
2650 1 8267 8269
2651 1 8270 8271
2652 1 8270 8272
2653 1 8273 8274
2654 1 8273 8275
2655 1 8276 8277
2656 1 8276 8278
2657 1 8279 8280
2658 1 8279 8281
2659 1 8282 8283
2660 1 8282 8284
2661 1 8285 8286
2662 1 8285 8287
2663 1 8288 8289
2664 1 8288 8290
2665 1 8291 8292
2666 1 8291 8293
2667 1 8294 8295
2668 1 8294 8296
2669 1 8297 8298
2670 1 8297 8299
2671 1 8300 8301
2672 1 8300 8302
2673 1 8303 8304
2674 1 8303 8305
2675 1 8306 8307
2676 1 8306 8308
2677 1 8309 8310
2678 1 8309 8311
2679 1 8312 8313
2680 1 8312 8314
2681 1 8315 8316
2682 1 8315 8317
2683 1 8318 8319
2684 1 8318 8320
2685 1 8321 8322
2686 1 8321 8323
2687 1 8324 8325
2688 1 8324 8326
2689 1 8327 8328
2690 1 8327 8329
2691 1 8330 8331
2692 1 8330 8332
2693 1 8333 8334
2694 1 8333 8335
2695 1 8336 8337
2696 1 8336 8338
2697 1 8339 8340
2698 1 8339 8341
2699 1 8342 8343
2700 1 8342 8344
2701 1 8345 8346
2702 1 8345 8347
2703 1 8348 8349
2704 1 8348 8350
2705 1 8351 8352
2706 1 8351 8353
2707 1 8354 8355
2708 1 8354 8356
2709 1 8357 8358
2710 1 8357 8359
2711 1 8360 8361
2712 1 8360 8362
2713 1 8363 8364
2714 1 8363 8365
2715 1 8366 8367
2716 1 8366 8368
2717 1 8369 8370
2718 1 8369 8371
2719 1 8372 8373
2720 1 8372 8374
2721 1 8375 8376
2722 1 8375 8377
2723 1 8378 8379
2724 1 8378 8380
2725 1 8381 8382
2726 1 8381 8383
2727 1 8384 8385
2728 1 8384 8386
2729 1 8387 8388
2730 1 8387 8389
2731 1 8390 8391
2732 1 8390 8392
2733 1 8393 8394
2734 1 8393 8395
2735 1 8396 8397
2736 1 8396 8398
2737 1 8399 8400
2738 1 8399 8401
2739 1 8402 8403
2740 1 8402 8404
2741 1 8405 8406
2742 1 8405 8407
2743 1 8408 8409
2744 1 8408 8410
2745 1 8411 8412
2746 1 8411 8413
2747 1 8414 8415
2748 1 8414 8416
2749 1 8417 8418
2750 1 8417 8419
2751 1 8420 8421
2752 1 8420 8422
2753 1 8423 8424
2754 1 8423 8425
2755 1 8426 8427
2756 1 8426 8428
2757 1 8429 8430
2758 1 8429 8431
2759 1 8432 8433
2760 1 8432 8434
2761 1 8435 8436
2762 1 8435 8437
2763 1 8438 8439
2764 1 8438 8440
2765 1 8441 8442
2766 1 8441 8443
2767 1 8444 8445
2768 1 8444 8446
2769 1 8447 8448
2770 1 8447 8449
2771 1 8450 8451
2772 1 8450 8452
2773 1 8453 8454
2774 1 8453 8455
2775 1 8456 8457
2776 1 8456 8458
2777 1 8459 8460
2778 1 8459 8461
2779 1 8462 8463
2780 1 8462 8464
2781 1 8465 8466
2782 1 8465 8467
2783 1 8468 8469
2784 1 8468 8470
2785 1 8471 8472
2786 1 8471 8473
2787 1 8474 8475
2788 1 8474 8476
2789 1 8477 8478
2790 1 8477 8479
2791 1 8480 8481
2792 1 8480 8482
2793 1 8483 8484
2794 1 8483 8485
2795 1 8486 8487
2796 1 8486 8488
2797 1 8489 8490
2798 1 8489 8491
2799 1 8492 8493
2800 1 8492 8494
2801 1 8495 8496
2802 1 8495 8497
2803 1 8498 8499
2804 1 8498 8500
2805 1 8501 8502
2806 1 8501 8503
2807 1 8504 8505
2808 1 8504 8506

Angles

1 1 4296 4295 4297
2 1 4299 4298 4300
3 1 4302 4301 4303
4 1 4305 4304 4306
5 1 4308 4307 4309
6 1 4311 4310 4312
7 1 4314 4313 4315
8 1 4317 4316 4318
9 1 4320 4319 4321
10 1 4323 4322 4324
11 1 4326 4325 4327
12 1 4329 4328 4330
13 1 4332 4331 4333
14 1 4335 4334 4336
15 1 4338 4337 4339
16 1 4341 4340 4342
17 1 4344 4343 4345
18 1 4347 4346 4348
19 1 4350 4349 4351
20 1 4353 4352 4354
21 1 4356 4355 4357
22 1 4359 4358 4360
23 1 4362 4361 4363
24 1 4365 4364 4366
25 1 4368 4367 4369
26 1 4371 4370 4372
27 1 4374 4373 4375
28 1 4377 4376 4378
29 1 4380 4379 4381
30 1 4383 4382 4384
31 1 4386 4385 4387
32 1 4389 4388 4390
33 1 4392 4391 4393
34 1 4395 4394 4396
35 1 4398 4397 4399
36 1 4401 4400 4402
37 1 4404 4403 4405
38 1 4407 4406 4408
39 1 4410 4409 4411
40 1 4413 4412 4414
41 1 4416 4415 4417
42 1 4419 4418 4420
43 1 4422 4421 4423
44 1 4425 4424 4426
45 1 4428 4427 4429
46 1 4431 4430 4432
47 1 4434 4433 4435
48 1 4437 4436 4438
49 1 4440 4439 4441
50 1 4443 4442 4444
51 1 4446 4445 4447
52 1 4449 4448 4450
53 1 4452 4451 4453
54 1 4455 4454 4456
55 1 4458 4457 4459
56 1 4461 4460 4462
57 1 4464 4463 4465
58 1 4467 4466 4468
59 1 4470 4469 4471
60 1 4473 4472 4474
61 1 4476 4475 4477
62 1 4479 4478 4480
63 1 4482 4481 4483
64 1 4485 4484 4486
65 1 4488 4487 4489
66 1 4491 4490 4492
67 1 4494 4493 4495
68 1 4497 4496 4498
69 1 4500 4499 4501
70 1 4503 4502 4504
71 1 4506 4505 4507
72 1 4509 4508 4510
73 1 4512 4511 4513
74 1 4515 4514 4516
75 1 4518 4517 4519
76 1 4521 4520 4522
77 1 4524 4523 4525
78 1 4527 4526 4528
79 1 4530 4529 4531
80 1 4533 4532 4534
81 1 4536 4535 4537
82 1 4539 4538 4540
83 1 4542 4541 4543
84 1 4545 4544 4546
85 1 4548 4547 4549
86 1 4551 4550 4552
87 1 4554 4553 4555
88 1 4557 4556 4558
89 1 4560 4559 4561
90 1 4563 4562 4564
91 1 4566 4565 4567
92 1 4569 4568 4570
93 1 4572 4571 4573
94 1 4575 4574 4576
95 1 4578 4577 4579
96 1 4581 4580 4582
97 1 4584 4583 4585
98 1 4587 4586 4588
99 1 4590 4589 4591
100 1 4593 4592 4594
101 1 4596 4595 4597
102 1 4599 4598 4600
103 1 4602 4601 4603
104 1 4605 4604 4606
105 1 4608 4607 4609
106 1 4611 4610 4612
107 1 4614 4613 4615
108 1 4617 4616 4618
109 1 4620 4619 4621
110 1 4623 4622 4624
111 1 4626 4625 4627
112 1 4629 4628 4630
113 1 4632 4631 4633
114 1 4635 4634 4636
115 1 4638 4637 4639
116 1 4641 4640 4642
117 1 4644 4643 4645
118 1 4647 4646 4648
119 1 4650 4649 4651
120 1 4653 4652 4654
121 1 4656 4655 4657
122 1 4659 4658 4660
123 1 4662 4661 4663
124 1 4665 4664 4666
125 1 4668 4667 4669
126 1 4671 4670 4672
127 1 4674 4673 4675
128 1 4677 4676 4678
129 1 4680 4679 4681
130 1 4683 4682 4684
131 1 4686 4685 4687
132 1 4689 4688 4690
133 1 4692 4691 4693
134 1 4695 4694 4696
135 1 4698 4697 4699
136 1 4701 4700 4702
137 1 4704 4703 4705
138 1 4707 4706 4708
139 1 4710 4709 4711
140 1 4713 4712 4714
141 1 4716 4715 4717
142 1 4719 4718 4720
143 1 4722 4721 4723
144 1 4725 4724 4726
145 1 4728 4727 4729
146 1 4731 4730 4732
147 1 4734 4733 4735
148 1 4737 4736 4738
149 1 4740 4739 4741
150 1 4743 4742 4744
151 1 4746 4745 4747
152 1 4749 4748 4750
153 1 4752 4751 4753
154 1 4755 4754 4756
155 1 4758 4757 4759
156 1 4761 4760 4762
157 1 4764 4763 4765
158 1 4767 4766 4768
159 1 4770 4769 4771
160 1 4773 4772 4774
161 1 4776 4775 4777
162 1 4779 4778 4780
163 1 4782 4781 4783
164 1 4785 4784 4786
165 1 4788 4787 4789
166 1 4791 4790 4792
167 1 4794 4793 4795
168 1 4797 4796 4798
169 1 4800 4799 4801
170 1 4803 4802 4804
171 1 4806 4805 4807
172 1 4809 4808 4810
173 1 4812 4811 4813
174 1 4815 4814 4816
175 1 4818 4817 4819
176 1 4821 4820 4822
177 1 4824 4823 4825
178 1 4827 4826 4828
179 1 4830 4829 4831
180 1 4833 4832 4834
181 1 4836 4835 4837
182 1 4839 4838 4840
183 1 4842 4841 4843
184 1 4845 4844 4846
185 1 4848 4847 4849
186 1 4851 4850 4852
187 1 4854 4853 4855
188 1 4857 4856 4858
189 1 4860 4859 4861
190 1 4863 4862 4864
191 1 4866 4865 4867
192 1 4869 4868 4870
193 1 4872 4871 4873
194 1 4875 4874 4876
195 1 4878 4877 4879
196 1 4881 4880 4882
197 1 4884 4883 4885
198 1 4887 4886 4888
199 1 4890 4889 4891
200 1 4893 4892 4894
201 1 4896 4895 4897
202 1 4899 4898 4900
203 1 4902 4901 4903
204 1 4905 4904 4906
205 1 4908 4907 4909
206 1 4911 4910 4912
207 1 4914 4913 4915
208 1 4917 4916 4918
209 1 4920 4919 4921
210 1 4923 4922 4924
211 1 4926 4925 4927
212 1 4929 4928 4930
213 1 4932 4931 4933
214 1 4935 4934 4936
215 1 4938 4937 4939
216 1 4941 4940 4942
217 1 4944 4943 4945
218 1 4947 4946 4948
219 1 4950 4949 4951
220 1 4953 4952 4954
221 1 4956 4955 4957
222 1 4959 4958 4960
223 1 4962 4961 4963
224 1 4965 4964 4966
225 1 4968 4967 4969
226 1 4971 4970 4972
227 1 4974 4973 4975
228 1 4977 4976 4978
229 1 4980 4979 4981
230 1 4983 4982 4984
231 1 4986 4985 4987
232 1 4989 4988 4990
233 1 4992 4991 4993
234 1 4995 4994 4996
235 1 4998 4997 4999
236 1 5001 5000 5002
237 1 5004 5003 5005
238 1 5007 5006 5008
239 1 5010 5009 5011
240 1 5013 5012 5014
241 1 5016 5015 5017
242 1 5019 5018 5020
243 1 5022 5021 5023
244 1 5025 5024 5026
245 1 5028 5027 5029
246 1 5031 5030 5032
247 1 5034 5033 5035
248 1 5037 5036 5038
249 1 5040 5039 5041
250 1 5043 5042 5044
251 1 5046 5045 5047
252 1 5049 5048 5050
253 1 5052 5051 5053
254 1 5055 5054 5056
255 1 5058 5057 5059
256 1 5061 5060 5062
257 1 5064 5063 5065
258 1 5067 5066 5068
259 1 5070 5069 5071
260 1 5073 5072 5074
261 1 5076 5075 5077
262 1 5079 5078 5080
263 1 5082 5081 5083
264 1 5085 5084 5086
265 1 5088 5087 5089
266 1 5091 5090 5092
267 1 5094 5093 5095
268 1 5097 5096 5098
269 1 5100 5099 5101
270 1 5103 5102 5104
271 1 5106 5105 5107
272 1 5109 5108 5110
273 1 5112 5111 5113
274 1 5115 5114 5116
275 1 5118 5117 5119
276 1 5121 5120 5122
277 1 5124 5123 5125
278 1 5127 5126 5128
279 1 5130 5129 5131
280 1 5133 5132 5134
281 1 5136 5135 5137
282 1 5139 5138 5140
283 1 5142 5141 5143
284 1 5145 5144 5146
285 1 5148 5147 5149
286 1 5151 5150 5152
287 1 5154 5153 5155
288 1 5157 5156 5158
289 1 5160 5159 5161
290 1 5163 5162 5164
291 1 5166 5165 5167
292 1 5169 5168 5170
293 1 5172 5171 5173
294 1 5175 5174 5176
295 1 5178 5177 5179
296 1 5181 5180 5182
297 1 5184 5183 5185
298 1 5187 5186 5188
299 1 5190 5189 5191
300 1 5193 5192 5194
301 1 5196 5195 5197
302 1 5199 5198 5200
303 1 5202 5201 5203
304 1 5205 5204 5206
305 1 5208 5207 5209
306 1 5211 5210 5212
307 1 5214 5213 5215
308 1 5217 5216 5218
309 1 5220 5219 5221
310 1 5223 5222 5224
311 1 5226 5225 5227
312 1 5229 5228 5230
313 1 5232 5231 5233
314 1 5235 5234 5236
315 1 5238 5237 5239
316 1 5241 5240 5242
317 1 5244 5243 5245
318 1 5247 5246 5248
319 1 5250 5249 5251
320 1 5253 5252 5254
321 1 5256 5255 5257
322 1 5259 5258 5260
323 1 5262 5261 5263
324 1 5265 5264 5266
325 1 5268 5267 5269
326 1 5271 5270 5272
327 1 5274 5273 5275
328 1 5277 5276 5278
329 1 5280 5279 5281
330 1 5283 5282 5284
331 1 5286 5285 5287
332 1 5289 5288 5290
333 1 5292 5291 5293
334 1 5295 5294 5296
335 1 5298 5297 5299
336 1 5301 5300 5302
337 1 5304 5303 5305
338 1 5307 5306 5308
339 1 5310 5309 5311
340 1 5313 5312 5314
341 1 5316 5315 5317
342 1 5319 5318 5320
343 1 5322 5321 5323
344 1 5325 5324 5326
345 1 5328 5327 5329
346 1 5331 5330 5332
347 1 5334 5333 5335
348 1 5337 5336 5338
349 1 5340 5339 5341
350 1 5343 5342 5344
351 1 5346 5345 5347
352 1 5349 5348 5350
353 1 5352 5351 5353
354 1 5355 5354 5356
355 1 5358 5357 5359
356 1 5361 5360 5362
357 1 5364 5363 5365
358 1 5367 5366 5368
359 1 5370 5369 5371
360 1 5373 5372 5374
361 1 5376 5375 5377
362 1 5379 5378 5380
363 1 5382 5381 5383
364 1 5385 5384 5386
365 1 5388 5387 5389
366 1 5391 5390 5392
367 1 5394 5393 5395
368 1 5397 5396 5398
369 1 5400 5399 5401
370 1 5403 5402 5404
371 1 5406 5405 5407
372 1 5409 5408 5410
373 1 5412 5411 5413
374 1 5415 5414 5416
375 1 5418 5417 5419
376 1 5421 5420 5422
377 1 5424 5423 5425
378 1 5427 5426 5428
379 1 5430 5429 5431
380 1 5433 5432 5434
381 1 5436 5435 5437
382 1 5439 5438 5440
383 1 5442 5441 5443
384 1 5445 5444 5446
385 1 5448 5447 5449
386 1 5451 5450 5452
387 1 5454 5453 5455
388 1 5457 5456 5458
389 1 5460 5459 5461
390 1 5463 5462 5464
391 1 5466 5465 5467
392 1 5469 5468 5470
393 1 5472 5471 5473
394 1 5475 5474 5476
395 1 5478 5477 5479
396 1 5481 5480 5482
397 1 5484 5483 5485
398 1 5487 5486 5488
399 1 5490 5489 5491
400 1 5493 5492 5494
401 1 5496 5495 5497
402 1 5499 5498 5500
403 1 5502 5501 5503
404 1 5505 5504 5506
405 1 5508 5507 5509
406 1 5511 5510 5512
407 1 5514 5513 5515
408 1 5517 5516 5518
409 1 5520 5519 5521
410 1 5523 5522 5524
411 1 5526 5525 5527
412 1 5529 5528 5530
413 1 5532 5531 5533
414 1 5535 5534 5536
415 1 5538 5537 5539
416 1 5541 5540 5542
417 1 5544 5543 5545
418 1 5547 5546 5548
419 1 5550 5549 5551
420 1 5553 5552 5554
421 1 5556 5555 5557
422 1 5559 5558 5560
423 1 5562 5561 5563
424 1 5565 5564 5566
425 1 5568 5567 5569
426 1 5571 5570 5572
427 1 5574 5573 5575
428 1 5577 5576 5578
429 1 5580 5579 5581
430 1 5583 5582 5584
431 1 5586 5585 5587
432 1 5589 5588 5590
433 1 5592 5591 5593
434 1 5595 5594 5596
435 1 5598 5597 5599
436 1 5601 5600 5602
437 1 5604 5603 5605
438 1 5607 5606 5608
439 1 5610 5609 5611
440 1 5613 5612 5614
441 1 5616 5615 5617
442 1 5619 5618 5620
443 1 5622 5621 5623
444 1 5625 5624 5626
445 1 5628 5627 5629
446 1 5631 5630 5632
447 1 5634 5633 5635
448 1 5637 5636 5638
449 1 5640 5639 5641
450 1 5643 5642 5644
451 1 5646 5645 5647
452 1 5649 5648 5650
453 1 5652 5651 5653
454 1 5655 5654 5656
455 1 5658 5657 5659
456 1 5661 5660 5662
457 1 5664 5663 5665
458 1 5667 5666 5668
459 1 5670 5669 5671
460 1 5673 5672 5674
461 1 5676 5675 5677
462 1 5679 5678 5680
463 1 5682 5681 5683
464 1 5685 5684 5686
465 1 5688 5687 5689
466 1 5691 5690 5692
467 1 5694 5693 5695
468 1 5697 5696 5698
469 1 5700 5699 5701
470 1 5703 5702 5704
471 1 5706 5705 5707
472 1 5709 5708 5710
473 1 5712 5711 5713
474 1 5715 5714 5716
475 1 5718 5717 5719
476 1 5721 5720 5722
477 1 5724 5723 5725
478 1 5727 5726 5728
479 1 5730 5729 5731
480 1 5733 5732 5734
481 1 5736 5735 5737
482 1 5739 5738 5740
483 1 5742 5741 5743
484 1 5745 5744 5746
485 1 5748 5747 5749
486 1 5751 5750 5752
487 1 5754 5753 5755
488 1 5757 5756 5758
489 1 5760 5759 5761
490 1 5763 5762 5764
491 1 5766 5765 5767
492 1 5769 5768 5770
493 1 5772 5771 5773
494 1 5775 5774 5776
495 1 5778 5777 5779
496 1 5781 5780 5782
497 1 5784 5783 5785
498 1 5787 5786 5788
499 1 5790 5789 5791
500 1 5793 5792 5794
501 1 5796 5795 5797
502 1 5799 5798 5800
503 1 5802 5801 5803
504 1 5805 5804 5806
505 1 5808 5807 5809
506 1 5811 5810 5812
507 1 5814 5813 5815
508 1 5817 5816 5818
509 1 5820 5819 5821
510 1 5823 5822 5824
511 1 5826 5825 5827
512 1 5829 5828 5830
513 1 5832 5831 5833
514 1 5835 5834 5836
515 1 5838 5837 5839
516 1 5841 5840 5842
517 1 5844 5843 5845
518 1 5847 5846 5848
519 1 5850 5849 5851
520 1 5853 5852 5854
521 1 5856 5855 5857
522 1 5859 5858 5860
523 1 5862 5861 5863
524 1 5865 5864 5866
525 1 5868 5867 5869
526 1 5871 5870 5872
527 1 5874 5873 5875
528 1 5877 5876 5878
529 1 5880 5879 5881
530 1 5883 5882 5884
531 1 5886 5885 5887
532 1 5889 5888 5890
533 1 5892 5891 5893
534 1 5895 5894 5896
535 1 5898 5897 5899
536 1 5901 5900 5902
537 1 5904 5903 5905
538 1 5907 5906 5908
539 1 5910 5909 5911
540 1 5913 5912 5914
541 1 5916 5915 5917
542 1 5919 5918 5920
543 1 5922 5921 5923
544 1 5925 5924 5926
545 1 5928 5927 5929
546 1 5931 5930 5932
547 1 5934 5933 5935
548 1 5937 5936 5938
549 1 5940 5939 5941
550 1 5943 5942 5944
551 1 5946 5945 5947
552 1 5949 5948 5950
553 1 5952 5951 5953
554 1 5955 5954 5956
555 1 5958 5957 5959
556 1 5961 5960 5962
557 1 5964 5963 5965
558 1 5967 5966 5968
559 1 5970 5969 5971
560 1 5973 5972 5974
561 1 5976 5975 5977
562 1 5979 5978 5980
563 1 5982 5981 5983
564 1 5985 5984 5986
565 1 5988 5987 5989
566 1 5991 5990 5992
567 1 5994 5993 5995
568 1 5997 5996 5998
569 1 6000 5999 6001
570 1 6003 6002 6004
571 1 6006 6005 6007
572 1 6009 6008 6010
573 1 6012 6011 6013
574 1 6015 6014 6016
575 1 6018 6017 6019
576 1 6021 6020 6022
577 1 6024 6023 6025
578 1 6027 6026 6028
579 1 6030 6029 6031
580 1 6033 6032 6034
581 1 6036 6035 6037
582 1 6039 6038 6040
583 1 6042 6041 6043
584 1 6045 6044 6046
585 1 6048 6047 6049
586 1 6051 6050 6052
587 1 6054 6053 6055
588 1 6057 6056 6058
589 1 6060 6059 6061
590 1 6063 6062 6064
591 1 6066 6065 6067
592 1 6069 6068 6070
593 1 6072 6071 6073
594 1 6075 6074 6076
595 1 6078 6077 6079
596 1 6081 6080 6082
597 1 6084 6083 6085
598 1 6087 6086 6088
599 1 6090 6089 6091
600 1 6093 6092 6094
601 1 6096 6095 6097
602 1 6099 6098 6100
603 1 6102 6101 6103
604 1 6105 6104 6106
605 1 6108 6107 6109
606 1 6111 6110 6112
607 1 6114 6113 6115
608 1 6117 6116 6118
609 1 6120 6119 6121
610 1 6123 6122 6124
611 1 6126 6125 6127
612 1 6129 6128 6130
613 1 6132 6131 6133
614 1 6135 6134 6136
615 1 6138 6137 6139
616 1 6141 6140 6142
617 1 6144 6143 6145
618 1 6147 6146 6148
619 1 6150 6149 6151
620 1 6153 6152 6154
621 1 6156 6155 6157
622 1 6159 6158 6160
623 1 6162 6161 6163
624 1 6165 6164 6166
625 1 6168 6167 6169
626 1 6171 6170 6172
627 1 6174 6173 6175
628 1 6177 6176 6178
629 1 6180 6179 6181
630 1 6183 6182 6184
631 1 6186 6185 6187
632 1 6189 6188 6190
633 1 6192 6191 6193
634 1 6195 6194 6196
635 1 6198 6197 6199
636 1 6201 6200 6202
637 1 6204 6203 6205
638 1 6207 6206 6208
639 1 6210 6209 6211
640 1 6213 6212 6214
641 1 6216 6215 6217
642 1 6219 6218 6220
643 1 6222 6221 6223
644 1 6225 6224 6226
645 1 6228 6227 6229
646 1 6231 6230 6232
647 1 6234 6233 6235
648 1 6237 6236 6238
649 1 6240 6239 6241
650 1 6243 6242 6244
651 1 6246 6245 6247
652 1 6249 6248 6250
653 1 6252 6251 6253
654 1 6255 6254 6256
655 1 6258 6257 6259
656 1 6261 6260 6262
657 1 6264 6263 6265
658 1 6267 6266 6268
659 1 6270 6269 6271
660 1 6273 6272 6274
661 1 6276 6275 6277
662 1 6279 6278 6280
663 1 6282 6281 6283
664 1 6285 6284 6286
665 1 6288 6287 6289
666 1 6291 6290 6292
667 1 6294 6293 6295
668 1 6297 6296 6298
669 1 6300 6299 6301
670 1 6303 6302 6304
671 1 6306 6305 6307
672 1 6309 6308 6310
673 1 6312 6311 6313
674 1 6315 6314 6316
675 1 6318 6317 6319
676 1 6321 6320 6322
677 1 6324 6323 6325
678 1 6327 6326 6328
679 1 6330 6329 6331
680 1 6333 6332 6334
681 1 6336 6335 6337
682 1 6339 6338 6340
683 1 6342 6341 6343
684 1 6345 6344 6346
685 1 6348 6347 6349
686 1 6351 6350 6352
687 1 6354 6353 6355
688 1 6357 6356 6358
689 1 6360 6359 6361
690 1 6363 6362 6364
691 1 6366 6365 6367
692 1 6369 6368 6370
693 1 6372 6371 6373
694 1 6375 6374 6376
695 1 6378 6377 6379
696 1 6381 6380 6382
697 1 6384 6383 6385
698 1 6387 6386 6388
699 1 6390 6389 6391
700 1 6393 6392 6394
701 1 6396 6395 6397
702 1 6399 6398 6400
703 1 6402 6401 6403
704 1 6405 6404 6406
705 1 6408 6407 6409
706 1 6411 6410 6412
707 1 6414 6413 6415
708 1 6417 6416 6418
709 1 6420 6419 6421
710 1 6423 6422 6424
711 1 6426 6425 6427
712 1 6429 6428 6430
713 1 6432 6431 6433
714 1 6435 6434 6436
715 1 6438 6437 6439
716 1 6441 6440 6442
717 1 6444 6443 6445
718 1 6447 6446 6448
719 1 6450 6449 6451
720 1 6453 6452 6454
721 1 6456 6455 6457
722 1 6459 6458 6460
723 1 6462 6461 6463
724 1 6465 6464 6466
725 1 6468 6467 6469
726 1 6471 6470 6472
727 1 6474 6473 6475
728 1 6477 6476 6478
729 1 6480 6479 6481
730 1 6483 6482 6484
731 1 6486 6485 6487
732 1 6489 6488 6490
733 1 6492 6491 6493
734 1 6495 6494 6496
735 1 6498 6497 6499
736 1 6501 6500 6502
737 1 6504 6503 6505
738 1 6507 6506 6508
739 1 6510 6509 6511
740 1 6513 6512 6514
741 1 6516 6515 6517
742 1 6519 6518 6520
743 1 6522 6521 6523
744 1 6525 6524 6526
745 1 6528 6527 6529
746 1 6531 6530 6532
747 1 6534 6533 6535
748 1 6537 6536 6538
749 1 6540 6539 6541
750 1 6543 6542 6544
751 1 6546 6545 6547
752 1 6549 6548 6550
753 1 6552 6551 6553
754 1 6555 6554 6556
755 1 6558 6557 6559
756 1 6561 6560 6562
757 1 6564 6563 6565
758 1 6567 6566 6568
759 1 6570 6569 6571
760 1 6573 6572 6574
761 1 6576 6575 6577
762 1 6579 6578 6580
763 1 6582 6581 6583
764 1 6585 6584 6586
765 1 6588 6587 6589
766 1 6591 6590 6592
767 1 6594 6593 6595
768 1 6597 6596 6598
769 1 6600 6599 6601
770 1 6603 6602 6604
771 1 6606 6605 6607
772 1 6609 6608 6610
773 1 6612 6611 6613
774 1 6615 6614 6616
775 1 6618 6617 6619
776 1 6621 6620 6622
777 1 6624 6623 6625
778 1 6627 6626 6628
779 1 6630 6629 6631
780 1 6633 6632 6634
781 1 6636 6635 6637
782 1 6639 6638 6640
783 1 6642 6641 6643
784 1 6645 6644 6646
785 1 6648 6647 6649
786 1 6651 6650 6652
787 1 6654 6653 6655
788 1 6657 6656 6658
789 1 6660 6659 6661
790 1 6663 6662 6664
791 1 6666 6665 6667
792 1 6669 6668 6670
793 1 6672 6671 6673
794 1 6675 6674 6676
795 1 6678 6677 6679
796 1 6681 6680 6682
797 1 6684 6683 6685
798 1 6687 6686 6688
799 1 6690 6689 6691
800 1 6693 6692 6694
801 1 6696 6695 6697
802 1 6699 6698 6700
803 1 6702 6701 6703
804 1 6705 6704 6706
805 1 6708 6707 6709
806 1 6711 6710 6712
807 1 6714 6713 6715
808 1 6717 6716 6718
809 1 6720 6719 6721
810 1 6723 6722 6724
811 1 6726 6725 6727
812 1 6729 6728 6730
813 1 6732 6731 6733
814 1 6735 6734 6736
815 1 6738 6737 6739
816 1 6741 6740 6742
817 1 6744 6743 6745
818 1 6747 6746 6748
819 1 6750 6749 6751
820 1 6753 6752 6754
821 1 6756 6755 6757
822 1 6759 6758 6760
823 1 6762 6761 6763
824 1 6765 6764 6766
825 1 6768 6767 6769
826 1 6771 6770 6772
827 1 6774 6773 6775
828 1 6777 6776 6778
829 1 6780 6779 6781
830 1 6783 6782 6784
831 1 6786 6785 6787
832 1 6789 6788 6790
833 1 6792 6791 6793
834 1 6795 6794 6796
835 1 6798 6797 6799
836 1 6801 6800 6802
837 1 6804 6803 6805
838 1 6807 6806 6808
839 1 6810 6809 6811
840 1 6813 6812 6814
841 1 6816 6815 6817
842 1 6819 6818 6820
843 1 6822 6821 6823
844 1 6825 6824 6826
845 1 6828 6827 6829
846 1 6831 6830 6832
847 1 6834 6833 6835
848 1 6837 6836 6838
849 1 6840 6839 6841
850 1 6843 6842 6844
851 1 6846 6845 6847
852 1 6849 6848 6850
853 1 6852 6851 6853
854 1 6855 6854 6856
855 1 6858 6857 6859
856 1 6861 6860 6862
857 1 6864 6863 6865
858 1 6867 6866 6868
859 1 6870 6869 6871
860 1 6873 6872 6874
861 1 6876 6875 6877
862 1 6879 6878 6880
863 1 6882 6881 6883
864 1 6885 6884 6886
865 1 6888 6887 6889
866 1 6891 6890 6892
867 1 6894 6893 6895
868 1 6897 6896 6898
869 1 6900 6899 6901
870 1 6903 6902 6904
871 1 6906 6905 6907
872 1 6909 6908 6910
873 1 6912 6911 6913
874 1 6915 6914 6916
875 1 6918 6917 6919
876 1 6921 6920 6922
877 1 6924 6923 6925
878 1 6927 6926 6928
879 1 6930 6929 6931
880 1 6933 6932 6934
881 1 6936 6935 6937
882 1 6939 6938 6940
883 1 6942 6941 6943
884 1 6945 6944 6946
885 1 6948 6947 6949
886 1 6951 6950 6952
887 1 6954 6953 6955
888 1 6957 6956 6958
889 1 6960 6959 6961
890 1 6963 6962 6964
891 1 6966 6965 6967
892 1 6969 6968 6970
893 1 6972 6971 6973
894 1 6975 6974 6976
895 1 6978 6977 6979
896 1 6981 6980 6982
897 1 6984 6983 6985
898 1 6987 6986 6988
899 1 6990 6989 6991
900 1 6993 6992 6994
901 1 6996 6995 6997
902 1 6999 6998 7000
903 1 7002 7001 7003
904 1 7005 7004 7006
905 1 7008 7007 7009
906 1 7011 7010 7012
907 1 7014 7013 7015
908 1 7017 7016 7018
909 1 7020 7019 7021
910 1 7023 7022 7024
911 1 7026 7025 7027
912 1 7029 7028 7030
913 1 7032 7031 7033
914 1 7035 7034 7036
915 1 7038 7037 7039
916 1 7041 7040 7042
917 1 7044 7043 7045
918 1 7047 7046 7048
919 1 7050 7049 7051
920 1 7053 7052 7054
921 1 7056 7055 7057
922 1 7059 7058 7060
923 1 7062 7061 7063
924 1 7065 7064 7066
925 1 7068 7067 7069
926 1 7071 7070 7072
927 1 7074 7073 7075
928 1 7077 7076 7078
929 1 7080 7079 7081
930 1 7083 7082 7084
931 1 7086 7085 7087
932 1 7089 7088 7090
933 1 7092 7091 7093
934 1 7095 7094 7096
935 1 7098 7097 7099
936 1 7101 7100 7102
937 1 7104 7103 7105
938 1 7107 7106 7108
939 1 7110 7109 7111
940 1 7113 7112 7114
941 1 7116 7115 7117
942 1 7119 7118 7120
943 1 7122 7121 7123
944 1 7125 7124 7126
945 1 7128 7127 7129
946 1 7131 7130 7132
947 1 7134 7133 7135
948 1 7137 7136 7138
949 1 7140 7139 7141
950 1 7143 7142 7144
951 1 7146 7145 7147
952 1 7149 7148 7150
953 1 7152 7151 7153
954 1 7155 7154 7156
955 1 7158 7157 7159
956 1 7161 7160 7162
957 1 7164 7163 7165
958 1 7167 7166 7168
959 1 7170 7169 7171
960 1 7173 7172 7174
961 1 7176 7175 7177
962 1 7179 7178 7180
963 1 7182 7181 7183
964 1 7185 7184 7186
965 1 7188 7187 7189
966 1 7191 7190 7192
967 1 7194 7193 7195
968 1 7197 7196 7198
969 1 7200 7199 7201
970 1 7203 7202 7204
971 1 7206 7205 7207
972 1 7209 7208 7210
973 1 7212 7211 7213
974 1 7215 7214 7216
975 1 7218 7217 7219
976 1 7221 7220 7222
977 1 7224 7223 7225
978 1 7227 7226 7228
979 1 7230 7229 7231
980 1 7233 7232 7234
981 1 7236 7235 7237
982 1 7239 7238 7240
983 1 7242 7241 7243
984 1 7245 7244 7246
985 1 7248 7247 7249
986 1 7251 7250 7252
987 1 7254 7253 7255
988 1 7257 7256 7258
989 1 7260 7259 7261
990 1 7263 7262 7264
991 1 7266 7265 7267
992 1 7269 7268 7270
993 1 7272 7271 7273
994 1 7275 7274 7276
995 1 7278 7277 7279
996 1 7281 7280 7282
997 1 7284 7283 7285
998 1 7287 7286 7288
999 1 7290 7289 7291
1000 1 7293 7292 7294
1001 1 7296 7295 7297
1002 1 7299 7298 7300
1003 1 7302 7301 7303
1004 1 7305 7304 7306
1005 1 7308 7307 7309
1006 1 7311 7310 7312
1007 1 7314 7313 7315
1008 1 7317 7316 7318
1009 1 7320 7319 7321
1010 1 7323 7322 7324
1011 1 7326 7325 7327
1012 1 7329 7328 7330
1013 1 7332 7331 7333
1014 1 7335 7334 7336
1015 1 7338 7337 7339
1016 1 7341 7340 7342
1017 1 7344 7343 7345
1018 1 7347 7346 7348
1019 1 7350 7349 7351
1020 1 7353 7352 7354
1021 1 7356 7355 7357
1022 1 7359 7358 7360
1023 1 7362 7361 7363
1024 1 7365 7364 7366
1025 1 7368 7367 7369
1026 1 7371 7370 7372
1027 1 7374 7373 7375
1028 1 7377 7376 7378
1029 1 7380 7379 7381
1030 1 7383 7382 7384
1031 1 7386 7385 7387
1032 1 7389 7388 7390
1033 1 7392 7391 7393
1034 1 7395 7394 7396
1035 1 7398 7397 7399
1036 1 7401 7400 7402
1037 1 7404 7403 7405
1038 1 7407 7406 7408
1039 1 7410 7409 7411
1040 1 7413 7412 7414
1041 1 7416 7415 7417
1042 1 7419 7418 7420
1043 1 7422 7421 7423
1044 1 7425 7424 7426
1045 1 7428 7427 7429
1046 1 7431 7430 7432
1047 1 7434 7433 7435
1048 1 7437 7436 7438
1049 1 7440 7439 7441
1050 1 7443 7442 7444
1051 1 7446 7445 7447
1052 1 7449 7448 7450
1053 1 7452 7451 7453
1054 1 7455 7454 7456
1055 1 7458 7457 7459
1056 1 7461 7460 7462
1057 1 7464 7463 7465
1058 1 7467 7466 7468
1059 1 7470 7469 7471
1060 1 7473 7472 7474
1061 1 7476 7475 7477
1062 1 7479 7478 7480
1063 1 7482 7481 7483
1064 1 7485 7484 7486
1065 1 7488 7487 7489
1066 1 7491 7490 7492
1067 1 7494 7493 7495
1068 1 7497 7496 7498
1069 1 7500 7499 7501
1070 1 7503 7502 7504
1071 1 7506 7505 7507
1072 1 7509 7508 7510
1073 1 7512 7511 7513
1074 1 7515 7514 7516
1075 1 7518 7517 7519
1076 1 7521 7520 7522
1077 1 7524 7523 7525
1078 1 7527 7526 7528
1079 1 7530 7529 7531
1080 1 7533 7532 7534
1081 1 7536 7535 7537
1082 1 7539 7538 7540
1083 1 7542 7541 7543
1084 1 7545 7544 7546
1085 1 7548 7547 7549
1086 1 7551 7550 7552
1087 1 7554 7553 7555
1088 1 7557 7556 7558
1089 1 7560 7559 7561
1090 1 7563 7562 7564
1091 1 7566 7565 7567
1092 1 7569 7568 7570
1093 1 7572 7571 7573
1094 1 7575 7574 7576
1095 1 7578 7577 7579
1096 1 7581 7580 7582
1097 1 7584 7583 7585
1098 1 7587 7586 7588
1099 1 7590 7589 7591
1100 1 7593 7592 7594
1101 1 7596 7595 7597
1102 1 7599 7598 7600
1103 1 7602 7601 7603
1104 1 7605 7604 7606
1105 1 7608 7607 7609
1106 1 7611 7610 7612
1107 1 7614 7613 7615
1108 1 7617 7616 7618
1109 1 7620 7619 7621
1110 1 7623 7622 7624
1111 1 7626 7625 7627
1112 1 7629 7628 7630
1113 1 7632 7631 7633
1114 1 7635 7634 7636
1115 1 7638 7637 7639
1116 1 7641 7640 7642
1117 1 7644 7643 7645
1118 1 7647 7646 7648
1119 1 7650 7649 7651
1120 1 7653 7652 7654
1121 1 7656 7655 7657
1122 1 7659 7658 7660
1123 1 7662 7661 7663
1124 1 7665 7664 7666
1125 1 7668 7667 7669
1126 1 7671 7670 7672
1127 1 7674 7673 7675
1128 1 7677 7676 7678
1129 1 7680 7679 7681
1130 1 7683 7682 7684
1131 1 7686 7685 7687
1132 1 7689 7688 7690
1133 1 7692 7691 7693
1134 1 7695 7694 7696
1135 1 7698 7697 7699
1136 1 7701 7700 7702
1137 1 7704 7703 7705
1138 1 7707 7706 7708
1139 1 7710 7709 7711
1140 1 7713 7712 7714
1141 1 7716 7715 7717
1142 1 7719 7718 7720
1143 1 7722 7721 7723
1144 1 7725 7724 7726
1145 1 7728 7727 7729
1146 1 7731 7730 7732
1147 1 7734 7733 7735
1148 1 7737 7736 7738
1149 1 7740 7739 7741
1150 1 7743 7742 7744
1151 1 7746 7745 7747
1152 1 7749 7748 7750
1153 1 7752 7751 7753
1154 1 7755 7754 7756
1155 1 7758 7757 7759
1156 1 7761 7760 7762
1157 1 7764 7763 7765
1158 1 7767 7766 7768
1159 1 7770 7769 7771
1160 1 7773 7772 7774
1161 1 7776 7775 7777
1162 1 7779 7778 7780
1163 1 7782 7781 7783
1164 1 7785 7784 7786
1165 1 7788 7787 7789
1166 1 7791 7790 7792
1167 1 7794 7793 7795
1168 1 7797 7796 7798
1169 1 7800 7799 7801
1170 1 7803 7802 7804
1171 1 7806 7805 7807
1172 1 7809 7808 7810
1173 1 7812 7811 7813
1174 1 7815 7814 7816
1175 1 7818 7817 7819
1176 1 7821 7820 7822
1177 1 7824 7823 7825
1178 1 7827 7826 7828
1179 1 7830 7829 7831
1180 1 7833 7832 7834
1181 1 7836 7835 7837
1182 1 7839 7838 7840
1183 1 7842 7841 7843
1184 1 7845 7844 7846
1185 1 7848 7847 7849
1186 1 7851 7850 7852
1187 1 7854 7853 7855
1188 1 7857 7856 7858
1189 1 7860 7859 7861
1190 1 7863 7862 7864
1191 1 7866 7865 7867
1192 1 7869 7868 7870
1193 1 7872 7871 7873
1194 1 7875 7874 7876
1195 1 7878 7877 7879
1196 1 7881 7880 7882
1197 1 7884 7883 7885
1198 1 7887 7886 7888
1199 1 7890 7889 7891
1200 1 7893 7892 7894
1201 1 7896 7895 7897
1202 1 7899 7898 7900
1203 1 7902 7901 7903
1204 1 7905 7904 7906
1205 1 7908 7907 7909
1206 1 7911 7910 7912
1207 1 7914 7913 7915
1208 1 7917 7916 7918
1209 1 7920 7919 7921
1210 1 7923 7922 7924
1211 1 7926 7925 7927
1212 1 7929 7928 7930
1213 1 7932 7931 7933
1214 1 7935 7934 7936
1215 1 7938 7937 7939
1216 1 7941 7940 7942
1217 1 7944 7943 7945
1218 1 7947 7946 7948
1219 1 7950 7949 7951
1220 1 7953 7952 7954
1221 1 7956 7955 7957
1222 1 7959 7958 7960
1223 1 7962 7961 7963
1224 1 7965 7964 7966
1225 1 7968 7967 7969
1226 1 7971 7970 7972
1227 1 7974 7973 7975
1228 1 7977 7976 7978
1229 1 7980 7979 7981
1230 1 7983 7982 7984
1231 1 7986 7985 7987
1232 1 7989 7988 7990
1233 1 7992 7991 7993
1234 1 7995 7994 7996
1235 1 7998 7997 7999
1236 1 8001 8000 8002
1237 1 8004 8003 8005
1238 1 8007 8006 8008
1239 1 8010 8009 8011
1240 1 8013 8012 8014
1241 1 8016 8015 8017
1242 1 8019 8018 8020
1243 1 8022 8021 8023
1244 1 8025 8024 8026
1245 1 8028 8027 8029
1246 1 8031 8030 8032
1247 1 8034 8033 8035
1248 1 8037 8036 8038
1249 1 8040 8039 8041
1250 1 8043 8042 8044
1251 1 8046 8045 8047
1252 1 8049 8048 8050
1253 1 8052 8051 8053
1254 1 8055 8054 8056
1255 1 8058 8057 8059
1256 1 8061 8060 8062
1257 1 8064 8063 8065
1258 1 8067 8066 8068
1259 1 8070 8069 8071
1260 1 8073 8072 8074
1261 1 8076 8075 8077
1262 1 8079 8078 8080
1263 1 8082 8081 8083
1264 1 8085 8084 8086
1265 1 8088 8087 8089
1266 1 8091 8090 8092
1267 1 8094 8093 8095
1268 1 8097 8096 8098
1269 1 8100 8099 8101
1270 1 8103 8102 8104
1271 1 8106 8105 8107
1272 1 8109 8108 8110
1273 1 8112 8111 8113
1274 1 8115 8114 8116
1275 1 8118 8117 8119
1276 1 8121 8120 8122
1277 1 8124 8123 8125
1278 1 8127 8126 8128
1279 1 8130 8129 8131
1280 1 8133 8132 8134
1281 1 8136 8135 8137
1282 1 8139 8138 8140
1283 1 8142 8141 8143
1284 1 8145 8144 8146
1285 1 8148 8147 8149
1286 1 8151 8150 8152
1287 1 8154 8153 8155
1288 1 8157 8156 8158
1289 1 8160 8159 8161
1290 1 8163 8162 8164
1291 1 8166 8165 8167
1292 1 8169 8168 8170
1293 1 8172 8171 8173
1294 1 8175 8174 8176
1295 1 8178 8177 8179
1296 1 8181 8180 8182
1297 1 8184 8183 8185
1298 1 8187 8186 8188
1299 1 8190 8189 8191
1300 1 8193 8192 8194
1301 1 8196 8195 8197
1302 1 8199 8198 8200
1303 1 8202 8201 8203
1304 1 8205 8204 8206
1305 1 8208 8207 8209
1306 1 8211 8210 8212
1307 1 8214 8213 8215
1308 1 8217 8216 8218
1309 1 8220 8219 8221
1310 1 8223 8222 8224
1311 1 8226 8225 8227
1312 1 8229 8228 8230
1313 1 8232 8231 8233
1314 1 8235 8234 8236
1315 1 8238 8237 8239
1316 1 8241 8240 8242
1317 1 8244 8243 8245
1318 1 8247 8246 8248
1319 1 8250 8249 8251
1320 1 8253 8252 8254
1321 1 8256 8255 8257
1322 1 8259 8258 8260
1323 1 8262 8261 8263
1324 1 8265 8264 8266
1325 1 8268 8267 8269
1326 1 8271 8270 8272
1327 1 8274 8273 8275
1328 1 8277 8276 8278
1329 1 8280 8279 8281
1330 1 8283 8282 8284
1331 1 8286 8285 8287
1332 1 8289 8288 8290
1333 1 8292 8291 8293
1334 1 8295 8294 8296
1335 1 8298 8297 8299
1336 1 8301 8300 8302
1337 1 8304 8303 8305
1338 1 8307 8306 8308
1339 1 8310 8309 8311
1340 1 8313 8312 8314
1341 1 8316 8315 8317
1342 1 8319 8318 8320
1343 1 8322 8321 8323
1344 1 8325 8324 8326
1345 1 8328 8327 8329
1346 1 8331 8330 8332
1347 1 8334 8333 8335
1348 1 8337 8336 8338
1349 1 8340 8339 8341
1350 1 8343 8342 8344
1351 1 8346 8345 8347
1352 1 8349 8348 8350
1353 1 8352 8351 8353
1354 1 8355 8354 8356
1355 1 8358 8357 8359
1356 1 8361 8360 8362
1357 1 8364 8363 8365
1358 1 8367 8366 8368
1359 1 8370 8369 8371
1360 1 8373 8372 8374
1361 1 8376 8375 8377
1362 1 8379 8378 8380
1363 1 8382 8381 8383
1364 1 8385 8384 8386
1365 1 8388 8387 8389
1366 1 8391 8390 8392
1367 1 8394 8393 8395
1368 1 8397 8396 8398
1369 1 8400 8399 8401
1370 1 8403 8402 8404
1371 1 8406 8405 8407
1372 1 8409 8408 8410
1373 1 8412 8411 8413
1374 1 8415 8414 8416
1375 1 8418 8417 8419
1376 1 8421 8420 8422
1377 1 8424 8423 8425
1378 1 8427 8426 8428
1379 1 8430 8429 8431
1380 1 8433 8432 8434
1381 1 8436 8435 8437
1382 1 8439 8438 8440
1383 1 8442 8441 8443
1384 1 8445 8444 8446
1385 1 8448 8447 8449
1386 1 8451 8450 8452
1387 1 8454 8453 8455
1388 1 8457 8456 8458
1389 1 8460 8459 8461
1390 1 8463 8462 8464
1391 1 8466 8465 8467
1392 1 8469 8468 8470
1393 1 8472 8471 8473
1394 1 8475 8474 8476
1395 1 8478 8477 8479
1396 1 8481 8480 8482
1397 1 8484 8483 8485
1398 1 8487 8486 8488
1399 1 8490 8489 8491
1400 1 8493 8492 8494
1401 1 8496 8495 8497
1402 1 8499 8498 8500
1403 1 8502 8501 8503
1404 1 8505 8504 8506
